     Program PWSCF v.6.4.1 starts on 16Apr2020 at  7:42:17

     R & G space division:  proc/nbgrp/npool/nimage =      48
     Waiting for input...
     Reading input from standard input

     Current dimensions of program PWSCF are:
     Max number of different atomic species (ntypx) = 10
     Max number of k-points (npk) =  40000
     Max angular momentum in pseudopotentials (lmaxx) =  3
               file Fe.pbe-spn-kjpaw_psl.0.2.1.UPF: wavefunction(s)  3D renormalized
               file O.pbe-n-kjpaw_psl.0.1.UPF: wavefunction(s)  2P renormalized

     Message from routine setup:
     DEPRECATED: symmetry with ibrav=0, use correct ibrav instead

     bravais-lattice index     =            0
     lattice parameter (alat)  =      18.8524  a.u.
     unit-cell volume          =    1943.2939 (a.u.)^3
     number of atoms/cell      =           24
     number of atomic types    =            3
     number of electrons       =       180.00
     number of Kohn-Sham states=          108
     kinetic-energy cutoff     =      30.0000  Ry
     charge density cutoff     =     180.0000  Ry
     convergence threshold     =      1.0E-06
     mixing beta               =       0.5000
     number of iterations used =            8  plain     mixing
     Exchange-correlation      = SLA PW PBX PBC ( 1  4  3  4 0 0)
     nstep                     =          200

     celldm(1)=  18.852379  celldm(2)=   0.000000  celldm(3)=   0.000000
     celldm(4)=   0.000000  celldm(5)=   0.000000  celldm(6)=   0.000000

     crystal axes: (cart. coord. in units of alat)
               a(1) = (   1.000000   0.000000   0.000000 )
               a(2) = (   0.000000   0.592130   0.000000 )
               a(3) = (   0.000000   0.000000   0.489805 )

     reciprocal axes: (cart. coord. in units 2 pi/alat)
               b(1) = (  1.000000  0.000000  0.000000 )
               b(2) = (  0.000000  1.688818  0.000000 )
               b(3) = (  0.000000  0.000000  2.041631 )

     PseudoPot. # 1 for P  read from file:
     ./P.pbe-n-rrkjus_psl.1.0.0.UPF
     MD5 check sum: 8b930f418f0a4573dca56cd030ffe088
     Pseudo is Ultrasoft + core correction, Zval =  5.0
     Generated using "atomic" code by A. Dal Corso v.5.1
     Using radial grid of 1147 points,  6 beta functions with:
                l(1) =   0
                l(2) =   0
                l(3) =   1
                l(4) =   1
                l(5) =   2
                l(6) =   2
     Q(r) pseudized with 0 coefficients

     PseudoPot. # 2 for Fe read from file:
     ./Fe.pbe-spn-kjpaw_psl.0.2.1.UPF
     MD5 check sum: e86618425769142926afa95317d90200
     Pseudo is Projector augmented-wave + core cor, Zval = 16.0
     Generated using "atomic" code by A. Dal Corso v.5.0.99 svn rev. 10869
     Shape of augmentation charge: PSQ
     Using radial grid of 1191 points,  6 beta functions with:
                l(1) =   0
                l(2) =   0
                l(3) =   1
                l(4) =   1
                l(5) =   2
                l(6) =   2
     Q(r) pseudized with 0 coefficients

     PseudoPot. # 3 for O  read from file:
     ./O.pbe-n-kjpaw_psl.0.1.UPF
     MD5 check sum: 0234752ac141de4415c5fc33072bef88
     Pseudo is Projector augmented-wave + core cor, Zval =  6.0
     Generated using "atomic" code by A. Dal Corso v.5.0.99 svn rev. 10869
     Shape of augmentation charge: BESSEL
     Using radial grid of 1095 points,  4 beta functions with:
                l(1) =   0
                l(2) =   0
                l(3) =   1
                l(4) =   1
     Q(r) pseudized with 0 coefficients

     atomic species   valence    mass     pseudopotential
        P              5.00    30.97376     P ( 1.00)
        Fe            16.00    55.84500     Fe( 1.00)
        O              6.00    15.99940     O ( 1.00)

      8 Sym. Ops., with inversion, found ( 6 have fractional translation)

                                    s                        frac. trans.

      isym =  1     identity

 cryst.   s( 1) = (     1          0          0      )
                  (     0          1          0      )
                  (     0          0          1      )

 cart.    s( 1) = (  1.0000000  0.0000000  0.0000000 )
                  (  0.0000000  1.0000000  0.0000000 )
                  (  0.0000000  0.0000000  1.0000000 )

      isym =  2     180 deg rotation - cart. axis [0,0,1]

 cryst.   s( 2) = (    -1          0          0      )    f =(  0.5000000 )
                  (     0         -1          0      )       (  0.0000000 )
                  (     0          0          1      )       ( -0.5000000 )

 cart.    s( 2) = ( -1.0000000  0.0000000  0.0000000 )    f =(  0.5000000 )
                  (  0.0000000 -1.0000000  0.0000000 )       (  0.0000000 )
                  (  0.0000000  0.0000000  1.0000000 )       ( -0.2449023 )

[...]

      isym =  5     inversion

[...]

      isym =  6     inv. 180 deg rotation - cart. axis [0,0,1]

[...]

   Cartesian axes

     site n.     atom                  positions (alat units)
         1           Fe  tau(   1) = (   0.2249200   0.4440976   0.2236364  )
         2           Fe  tau(   2) = (   0.7750800   0.1480325   0.2661681  )
         3           Fe  tau(   3) = (   0.2750800   0.1480325   0.4685387  )
         4           Fe  tau(   4) = (   0.7249200   0.4440976   0.0212658  )
         5           P   tau(   5) = (   0.0963420   0.1480325   0.1988048  )
         6           P   tau(   6) = (   0.9036580   0.4440976   0.2909997  )
         7           P   tau(   7) = (   0.4036580   0.4440976   0.4437071  )
         8           P   tau(   8) = (   0.5963420   0.1480325   0.0460975  )
         9           O   tau(   9) = (   0.1692870   0.0277656   0.1260634  )
        10           O   tau(  10) = (   0.8307130   0.5643646   0.3637411  )
        11           O   tau(  11) = (   0.3307130   0.5643646   0.3709657  )
        12           O   tau(  12) = (   0.6692870   0.0277656   0.1188388  )
        13           O   tau(  13) = (   0.6692870   0.2682995   0.1188388  )
        14           O   tau(  14) = (   0.3307130   0.3238307   0.3709657  )
        15           O   tau(  15) = (   0.8307130   0.3238307   0.3637411  )
        16           O   tau(  16) = (   0.1692870   0.2682995   0.1260634  )
        17           O   tau(  17) = (   0.0542900   0.4440976   0.3183053  )
        18           O   tau(  18) = (   0.9457100   0.1480325   0.1714992  )
        19           O   tau(  19) = (   0.4457100   0.1480325   0.0734031  )
        20           O   tau(  20) = (   0.5542900   0.4440976   0.4164014  )
        21           O   tau(  21) = (   0.1228920   0.1480325   0.3494158  )
        22           O   tau(  22) = (   0.8771080   0.4440976   0.1403888  )
        23           O   tau(  23) = (   0.3771080   0.4440976   0.1045135  )
        24           O   tau(  24) = (   0.6228920   0.1480325   0.3852910  )

   Crystallographic axes

     site n.     atom                  positions (cryst. coord.)
         1           Fe  tau(   1) = (  0.2249200  0.7500000  0.4565830  )
         2           Fe  tau(   2) = (  0.7750800  0.2500000  0.5434170  )
         3           Fe  tau(   3) = (  0.2750800  0.2500000  0.9565830  )
         4           Fe  tau(   4) = (  0.7249200  0.7500000  0.0434170  )
         5           P   tau(   5) = (  0.0963420  0.2500000  0.4058860  )
         6           P   tau(   6) = (  0.9036580  0.7500000  0.5941140  )
         7           P   tau(   7) = (  0.4036580  0.7500000  0.9058860  )
         8           P   tau(   8) = (  0.5963420  0.2500000  0.0941140  )
         9           O   tau(   9) = (  0.1692870  0.0468910  0.2573750  )
        10           O   tau(  10) = (  0.8307130  0.9531090  0.7426250  )
        11           O   tau(  11) = (  0.3307130  0.9531090  0.7573750  )
        12           O   tau(  12) = (  0.6692870  0.0468910  0.2426250  )
        13           O   tau(  13) = (  0.6692870  0.4531090  0.2426250  )
        14           O   tau(  14) = (  0.3307130  0.5468910  0.7573750  )
        15           O   tau(  15) = (  0.8307130  0.5468910  0.7426250  )
        16           O   tau(  16) = (  0.1692870  0.4531090  0.2573750  )
        17           O   tau(  17) = (  0.0542900  0.7500000  0.6498620  )
        18           O   tau(  18) = (  0.9457100  0.2500000  0.3501380  )
        19           O   tau(  19) = (  0.4457100  0.2500000  0.1498620  )
        20           O   tau(  20) = (  0.5542900  0.7500000  0.8501380  )
        21           O   tau(  21) = (  0.1228920  0.2500000  0.7133780  )
        22           O   tau(  22) = (  0.8771080  0.7500000  0.2866220  )
        23           O   tau(  23) = (  0.3771080  0.7500000  0.2133780  )
        24           O   tau(  24) = (  0.6228920  0.2500000  0.7866220  )

     number of k points=    24  gaussian smearing, width (Ry)=  0.0020
                       cart. coord. in units 2pi/alat
        k(    1) = (   0.0000000   0.0000000   0.0000000), wk =   0.0222222
        k(    2) = (   0.0000000   0.0000000   0.3402718), wk =   0.0444444
        k(    3) = (   0.0000000   0.0000000   0.6805436), wk =   0.0444444
        k(    4) = (   0.0000000   0.0000000  -1.0208154), wk =   0.0222222
        k(    5) = (   0.0000000   0.3377636   0.0000000), wk =   0.0444444
        k(    6) = (   0.0000000   0.3377636   0.3402718), wk =   0.0888889
        k(    7) = (   0.0000000   0.3377636   0.6805436), wk =   0.0888889
        k(    8) = (   0.0000000   0.3377636  -1.0208154), wk =   0.0444444
        k(    9) = (   0.0000000   0.6755271   0.0000000), wk =   0.0444444
        k(   10) = (   0.0000000   0.6755271   0.3402718), wk =   0.0888889
        k(   11) = (   0.0000000   0.6755271   0.6805436), wk =   0.0888889
        k(   12) = (   0.0000000   0.6755271  -1.0208154), wk =   0.0444444
        k(   13) = (   0.3333333   0.0000000   0.0000000), wk =   0.0444444
        k(   14) = (   0.3333333   0.0000000   0.3402718), wk =   0.0888889
        k(   15) = (   0.3333333   0.0000000   0.6805436), wk =   0.0888889
        k(   16) = (   0.3333333   0.0000000  -1.0208154), wk =   0.0444444
        k(   17) = (   0.3333333   0.3377636   0.0000000), wk =   0.0888889
        k(   18) = (   0.3333333   0.3377636   0.3402718), wk =   0.1777778
        k(   19) = (   0.3333333   0.3377636   0.6805436), wk =   0.1777778
        k(   20) = (   0.3333333   0.3377636  -1.0208154), wk =   0.0888889
        k(   21) = (   0.3333333   0.6755271   0.0000000), wk =   0.0888889
        k(   22) = (   0.3333333   0.6755271   0.3402718), wk =   0.1777778
        k(   23) = (   0.3333333   0.6755271   0.6805436), wk =   0.1777778
        k(   24) = (   0.3333333   0.6755271  -1.0208154), wk =   0.0888889

                       cryst. coord.
        k(    1) = (   0.0000000   0.0000000   0.0000000), wk =   0.0222222
        k(    2) = (   0.0000000   0.0000000   0.1666667), wk =   0.0444444
        k(    3) = (   0.0000000   0.0000000   0.3333333), wk =   0.0444444
        k(    4) = (   0.0000000   0.0000000  -0.5000000), wk =   0.0222222
        k(    5) = (   0.0000000   0.2000000   0.0000000), wk =   0.0444444
[...]
     Harris-Foulkes estimate   =   -2038.25279482 Ry
     estimated scf accuracy    <          2.4E-09 Ry

     The total energy is the sum of the following terms:

     one-electron contribution =    -794.22135262 Ry
     hartree contribution      =     509.33813710 Ry
     xc contribution           =    -278.10951686 Ry
     ewald contribution        =   -1018.61766282 Ry
     one-center paw contrib.   =    -456.64180296 Ry
      -> PAW hartree energy AE =     210.21827773 Ry
      -> PAW hartree energy PS =    -209.42728094 Ry
      -> PAW xc energy AE      =    -111.14507696 Ry
      -> PAW xc energy PS      =      34.27565692 Ry
      -> total E_H with PAW    =     510.12913389 Ry
      -> total E_XC with PAW   =    -354.97893690 Ry
     smearing contrib. (-TS)   =      -0.00059679 Ry

     convergence has been achieved in  14 iterations

     Forces acting on atoms (cartesian axes, Ry/au):

     atom    1 type  2   force =    -0.01735284    0.00000000   -0.06160935
     atom    2 type  2   force =     0.01735284    0.00000000    0.06160935
     atom    3 type  2   force =     0.01735284    0.00000000   -0.06160935
     atom    4 type  2   force =    -0.01735284    0.00000000    0.06160935
     atom    5 type  1   force =     0.00459418    0.00000000   -0.00409732
     atom    6 type  1   force =    -0.00459418   -0.00000000    0.00409732
     atom    7 type  1   force =    -0.00459418   -0.00000000   -0.00409732
     atom    8 type  1   force =     0.00459418    0.00000000    0.00409732
     atom    9 type  3   force =    -0.01884005    0.00362754    0.00000084
     atom   10 type  3   force =     0.01884005   -0.00362754   -0.00000084
     atom   11 type  3   force =     0.01884005   -0.00362754    0.00000084
     atom   12 type  3   force =    -0.01884005    0.00362754   -0.00000084
     atom   13 type  3   force =    -0.01884005   -0.00362754   -0.00000084
     atom   14 type  3   force =     0.01884005    0.00362754    0.00000084
     atom   15 type  3   force =     0.01884005    0.00362754   -0.00000084
     atom   16 type  3   force =    -0.01884005   -0.00362754    0.00000084
     atom   17 type  3   force =    -0.00970018    0.00000000    0.01743975
     atom   18 type  3   force =     0.00970018    0.00000000   -0.01743975
     atom   19 type  3   force =     0.00970018    0.00000000    0.01743975
     atom   20 type  3   force =    -0.00970018    0.00000000   -0.01743975
     atom   21 type  3   force =    -0.01615042    0.00000000   -0.00603968
     atom   22 type  3   force =     0.01615042    0.00000000    0.00603968
     atom   23 type  3   force =     0.01615042    0.00000000   -0.00603968
     atom   24 type  3   force =    -0.01615042    0.00000000    0.00603968
     The non-local contrib.  to forces
     atom    1 type  2   force =     0.05967447    0.00000000    0.10895365
     atom    2 type  2   force =    -0.05967447    0.00000000   -0.10895365
     atom    3 type  2   force =    -0.05967447    0.00000000    0.10895365
     atom    4 type  2   force =     0.05967447    0.00000000   -0.10895365
     atom    5 type  1   force =     0.07621215    0.00000000   -0.11618219
     atom    6 type  1   force =    -0.07621215    0.00000000    0.11618219
     atom    7 type  1   force =    -0.07621215    0.00000000   -0.11618219
     atom    8 type  1   force =     0.07621215    0.00000000    0.11618219
     atom    9 type  3   force =    -0.19558454    1.26264772    0.80768599
     atom   10 type  3   force =     0.19558454   -1.26264772   -0.80768599
     atom   11 type  3   force =     0.19558454   -1.26264772    0.80768599
     atom   12 type  3   force =    -0.19558454    1.26264772   -0.80768599
     atom   13 type  3   force =    -0.19558454   -1.26264772   -0.80768599
     atom   14 type  3   force =     0.19558454    1.26264772    0.80768599
     atom   15 type  3   force =     0.19558454    1.26264772   -0.80768599
     atom   16 type  3   force =    -0.19558454   -1.26264772    0.80768599
     atom   17 type  3   force =    -1.35875155    0.00000000   -1.29664471
     atom   18 type  3   force =     1.35875155    0.00000000    1.29664471
     atom   19 type  3   force =     1.35875155    0.00000000   -1.29664471
     atom   20 type  3   force =    -1.35875155    0.00000000    1.29664471
     atom   21 type  3   force =     0.57307644    0.00000000   -1.71548504
     atom   22 type  3   force =    -0.57307644    0.00000000    1.71548504
     atom   23 type  3   force =    -0.57307644    0.00000000   -1.71548504
     atom   24 type  3   force =     0.57307644    0.00000000    1.71548504
     The ionic contribution  to forces
     atom    1 type  2   force =    -1.82146051   -0.00000000   -3.48005972
     atom    2 type  2   force =     1.82146051    0.00000000    3.48005972
     atom    3 type  2   force =     1.82146051    0.00000000   -3.48005972
     atom    4 type  2   force =    -1.82146051   -0.00000000    3.48005972
     atom    5 type  1   force =    -2.84614764    0.00000000    0.68305948
     atom    6 type  1   force =     2.84614764   -0.00000000   -0.68305948
     atom    7 type  1   force =     2.84614764   -0.00000000    0.68305948
     atom    8 type  1   force =    -2.84614764    0.00000000   -0.68305948
     atom    9 type  3   force =    -6.73018774   -3.61922767   -2.07726109
     atom   10 type  3   force =     6.73018774    3.61922767    2.07726109
     atom   11 type  3   force =     6.73018774    3.61922767   -2.07726109
     atom   12 type  3   force =    -6.73018774   -3.61922767    2.07726109
     atom   13 type  3   force =    -6.73018774    3.61922767    2.07726109
     atom   14 type  3   force =     6.73018774   -3.61922767   -2.07726109
     atom   15 type  3   force =     6.73018774   -3.61922767    2.07726109
     atom   16 type  3   force =    -6.73018774    3.61922767   -2.07726109
     atom   17 type  3   force =    -3.40897601   -0.00000000    8.26048488
     atom   18 type  3   force =     3.40897601    0.00000000   -8.26048488
     atom   19 type  3   force =     3.40897601    0.00000000    8.26048488
     atom   20 type  3   force =    -3.40897601   -0.00000000   -8.26048488
     atom   21 type  3   force =    -8.32973191    0.00000000    1.95189181
     atom   22 type  3   force =     8.32973191   -0.00000000   -1.95189181
     atom   23 type  3   force =     8.32973191   -0.00000000    1.95189181
     atom   24 type  3   force =    -8.32973191    0.00000000   -1.95189181
     The local contribution  to forces
     atom    1 type  2   force =     1.74871467   -0.00000000    3.33738042
     atom    2 type  2   force =    -1.74871467    0.00000000   -3.33738042
     atom    3 type  2   force =    -1.74871467    0.00000000    3.33738042
     atom    4 type  2   force =     1.74871467   -0.00000000   -3.33738042
     atom    5 type  1   force =     2.77971898    0.00000000   -0.57837013
     atom    6 type  1   force =    -2.77971898   -0.00000000    0.57837013
     atom    7 type  1   force =    -2.77971898   -0.00000000   -0.57837013
     atom    8 type  1   force =     2.77971898    0.00000000    0.57837013
     atom    9 type  3   force =     6.90572135    2.37133278    1.27707048
     atom   10 type  3   force =    -6.90572135   -2.37133278   -1.27707048
     atom   11 type  3   force =    -6.90572135   -2.37133278    1.27707048
     atom   12 type  3   force =     6.90572135    2.37133278   -1.27707048
     atom   13 type  3   force =     6.90572135   -2.37133278   -1.27707048
     atom   14 type  3   force =    -6.90572135    2.37133278    1.27707048
     atom   15 type  3   force =    -6.90572135    2.37133278   -1.27707048
     atom   16 type  3   force =     6.90572135   -2.37133278    1.27707048
     atom   17 type  3   force =     4.74642660   -0.00000000   -6.95853758
     atom   18 type  3   force =    -4.74642660    0.00000000    6.95853758
     atom   19 type  3   force =    -4.74642660    0.00000000   -6.95853758
     atom   20 type  3   force =     4.74642660   -0.00000000    6.95853758
     atom   21 type  3   force =     7.74671494    0.00000000   -0.25729560
     atom   22 type  3   force =    -7.74671494   -0.00000000    0.25729560
     atom   23 type  3   force =    -7.74671494   -0.00000000   -0.25729560
     atom   24 type  3   force =     7.74671494    0.00000000    0.25729560
     The core correction contribution to forces
     atom    1 type  2   force =    -0.00428284    0.00000000   -0.02787711
     atom    2 type  2   force =     0.00428284   -0.00000000    0.02787711
     atom    3 type  2   force =     0.00428284   -0.00000000   -0.02787711
     atom    4 type  2   force =    -0.00428284    0.00000000    0.02787711
     atom    5 type  1   force =    -0.00519005   -0.00000000    0.00739465
     atom    6 type  1   force =     0.00519005    0.00000000   -0.00739465
     atom    7 type  1   force =     0.00519005    0.00000000    0.00739465
     atom    8 type  1   force =    -0.00519005   -0.00000000   -0.00739465
     atom    9 type  3   force =     0.00120359   -0.01111260   -0.00748788
     atom   10 type  3   force =    -0.00120359    0.01111260    0.00748788
     atom   11 type  3   force =    -0.00120359    0.01111260   -0.00748788
     atom   12 type  3   force =     0.00120359   -0.01111260    0.00748788
     atom   13 type  3   force =     0.00120359    0.01111260    0.00748788
     atom   14 type  3   force =    -0.00120359   -0.01111260   -0.00748788
     atom   15 type  3   force =    -0.00120359   -0.01111260    0.00748788
     atom   16 type  3   force =     0.00120359    0.01111260   -0.00748788
     atom   17 type  3   force =     0.01159441   -0.00000000    0.01213674
     atom   18 type  3   force =    -0.01159441    0.00000000   -0.01213674
     atom   19 type  3   force =    -0.01159441    0.00000000    0.01213674
     atom   20 type  3   force =     0.01159441   -0.00000000   -0.01213674
     atom   21 type  3   force =    -0.00621483    0.00000000    0.01484458
     atom   22 type  3   force =     0.00621483   -0.00000000   -0.01484458
     atom   23 type  3   force =     0.00621483   -0.00000000    0.01484458
     atom   24 type  3   force =    -0.00621483    0.00000000   -0.01484458
     The Hubbard contrib.    to forces
     atom    1 type  2   force =     0.00000000    0.00000000    0.00000000
     atom    2 type  2   force =     0.00000000    0.00000000    0.00000000
     atom    3 type  2   force =     0.00000000    0.00000000    0.00000000
     atom    4 type  2   force =     0.00000000    0.00000000    0.00000000
     atom    5 type  1   force =     0.00000000    0.00000000    0.00000000
     atom    6 type  1   force =     0.00000000    0.00000000    0.00000000
     atom    7 type  1   force =     0.00000000    0.00000000    0.00000000
     atom    8 type  1   force =     0.00000000    0.00000000    0.00000000
     atom    9 type  3   force =     0.00000000    0.00000000    0.00000000
     atom   10 type  3   force =     0.00000000    0.00000000    0.00000000
     atom   11 type  3   force =     0.00000000    0.00000000    0.00000000
     atom   12 type  3   force =     0.00000000    0.00000000    0.00000000
     atom   13 type  3   force =     0.00000000    0.00000000    0.00000000
     atom   14 type  3   force =     0.00000000    0.00000000    0.00000000
     atom   15 type  3   force =     0.00000000    0.00000000    0.00000000
     atom   16 type  3   force =     0.00000000    0.00000000    0.00000000
     atom   17 type  3   force =     0.00000000    0.00000000    0.00000000
     atom   18 type  3   force =     0.00000000    0.00000000    0.00000000
     atom   19 type  3   force =     0.00000000    0.00000000    0.00000000
     atom   20 type  3   force =     0.00000000    0.00000000    0.00000000
     atom   21 type  3   force =     0.00000000    0.00000000    0.00000000
     atom   22 type  3   force =     0.00000000    0.00000000    0.00000000
     atom   23 type  3   force =     0.00000000    0.00000000    0.00000000
     atom   24 type  3   force =     0.00000000    0.00000000    0.00000000
     The SCF correction term to forces
     atom    1 type  2   force =     0.00000137   -0.00000000   -0.00000659
     atom    2 type  2   force =    -0.00000137   -0.00000000    0.00000659
     atom    3 type  2   force =    -0.00000137   -0.00000000   -0.00000659
     atom    4 type  2   force =     0.00000137    0.00000000    0.00000659
     atom    5 type  1   force =     0.00000074   -0.00000000    0.00000087
     atom    6 type  1   force =    -0.00000074   -0.00000000   -0.00000087
     atom    7 type  1   force =    -0.00000074    0.00000000    0.00000087
     atom    8 type  1   force =     0.00000074    0.00000000   -0.00000087
     atom    9 type  3   force =     0.00000729   -0.00001268   -0.00000665
     atom   10 type  3   force =    -0.00000729    0.00001268    0.00000665
     atom   11 type  3   force =    -0.00000729    0.00001268   -0.00000665
     atom   12 type  3   force =     0.00000729   -0.00001268    0.00000665
     atom   13 type  3   force =     0.00000729    0.00001268    0.00000665
     atom   14 type  3   force =    -0.00000729   -0.00001268   -0.00000665
     atom   15 type  3   force =    -0.00000729   -0.00001268    0.00000665
     atom   16 type  3   force =     0.00000729    0.00001268   -0.00000665
     atom   17 type  3   force =     0.00000637   -0.00000000    0.00000042
     atom   18 type  3   force =    -0.00000637   -0.00000000   -0.00000042
     atom   19 type  3   force =    -0.00000637    0.00000000    0.00000042
     atom   20 type  3   force =     0.00000637   -0.00000000   -0.00000042
     atom   21 type  3   force =     0.00000493   -0.00000000    0.00000456
     atom   22 type  3   force =    -0.00000493    0.00000000   -0.00000456
     atom   23 type  3   force =    -0.00000493    0.00000000    0.00000456
     atom   24 type  3   force =     0.00000493   -0.00000000   -0.00000456

     Total force =     0.149218     Total SCF correction =     0.000051

     Computing stress (Cartesian axis) and pressure

          total   stress  (Ry/bohr**3)                   (kbar)     P= -313.44
  -0.00187829   0.00000000   0.00000000       -276.31      0.00      0.00
   0.00000000  -0.00226962   0.00000000          0.00   -333.87      0.00
   0.00000000   0.00000000  -0.00224425          0.00      0.00   -330.14

     kinetic stress (kbar)  34255.31      0.00      0.00
                                0.00  34579.45      0.00
                                0.00      0.00  34187.07

     local   stress (kbar)   3317.72      0.00     -0.00
                                0.00  -5810.21      0.00
                               -0.00      0.00  -6632.42

     nonloc. stress (kbar)  -5743.96      0.00      0.00
                                0.00  -5817.58      0.00
                                0.00      0.00  -5750.97

     hartree stress (kbar)  14006.27     -0.00      0.00
                               -0.00  19484.13     -0.00
                                0.00     -0.00  18987.57

     exc-cor stress (kbar)  -3809.49     -0.00      0.00
                               -0.00  -3819.39      0.00
                                0.00      0.00  -3806.80

     corecor stress (kbar)  -4532.72      0.00      0.00
                                0.00  -4530.29      0.00
                                0.00      0.00  -4554.11

     ewald   stress (kbar) -37769.44     -0.00      0.00
                               -0.00 -34419.99      0.00
                                0.00      0.00 -32760.49

     hubbard stress (kbar)      0.00      0.00      0.00
                                0.00      0.00      0.00
                                0.00      0.00      0.00

     london  stress (kbar)      0.00      0.00      0.00
                                0.00      0.00      0.00
                                0.00      0.00      0.00

     DFT-D3  stress (kbar)      0.00      0.00      0.00
                                0.00      0.00      0.00
                                0.00      0.00      0.00

     XDM     stress (kbar)      0.00      0.00      0.00
                                0.00      0.00      0.00
                                0.00      0.00      0.00

     dft-nl  stress (kbar)      0.00      0.00      0.00
                                0.00      0.00      0.00
                                0.00      0.00      0.00

     TS-vdW  stress (kbar)      0.00      0.00      0.00
                                0.00      0.00      0.00
                                0.00      0.00      0.00

     Writing output data file VLAB.save/

     General routines

     Parallel routines

     PAW routines

   This run was terminated on:   7:56:10  16Apr2020

   JOB DONE.