     Program PWSCF v.6.4.1 starts on 16Apr2020 at  7:29:18

     R & G space division:  proc/nbgrp/npool/nimage =      48
     Waiting for input...
     Reading input from standard input

     Current dimensions of program PWSCF are:
     Max number of different atomic species (ntypx) = 10
     Max number of k-points (npk) =  40000
     Max angular momentum in pseudopotentials (lmaxx) =  3
               file Fe.pbe-spn-kjpaw_psl.0.2.1.UPF: wavefunction(s)  3D renormalized
               file O.pbe-n-kjpaw_psl.0.1.UPF: wavefunction(s)  2P renormalized

     Message from routine setup:
     DEPRECATED: symmetry with ibrav=0, use correct ibrav instead

     bravais-lattice index     =            0
     lattice parameter (alat)  =      18.8524  a.u.
     unit-cell volume          =    1943.2939 (a.u.)^3
     number of atoms/cell      =           24
     number of atomic types    =            3
     number of electrons       =       180.00
     number of Kohn-Sham states=          108
     kinetic-energy cutoff     =      30.0000  Ry
     charge density cutoff     =     120.0000  Ry
     convergence threshold     =      1.0E-06
     mixing beta               =       0.5000
     number of iterations used =            8  plain     mixing
     Exchange-correlation      = SLA PW PBX PBC ( 1  4  3  4 0 0)
     nstep                     =          100

     celldm(1)=  18.852379  celldm(2)=   0.000000  celldm(3)=   0.000000
     celldm(4)=   0.000000  celldm(5)=   0.000000  celldm(6)=   0.000000

     crystal axes: (cart. coord. in units of alat)
               a(1) = (   1.000000   0.000000   0.000000 )
               a(2) = (   0.000000   0.592130   0.000000 )
               a(3) = (   0.000000   0.000000   0.489805 )

     reciprocal axes: (cart. coord. in units 2 pi/alat)
               b(1) = (  1.000000  0.000000  0.000000 )
               b(2) = (  0.000000  1.688818  0.000000 )
               b(3) = (  0.000000  0.000000  2.041631 )

     PseudoPot. # 1 for P  read from file:
     ./P.pbe-n-rrkjus_psl.1.0.0.UPF
     MD5 check sum: 8b930f418f0a4573dca56cd030ffe088
     Pseudo is Ultrasoft + core correction, Zval =  5.0
     Generated using "atomic" code by A. Dal Corso v.5.1
     Using radial grid of 1147 points,  6 beta functions with:
                l(1) =   0
                l(2) =   0
                l(3) =   1
                l(4) =   1
                l(5) =   2
                l(6) =   2
     Q(r) pseudized with 0 coefficients

     PseudoPot. # 2 for Fe read from file:
     ./Fe.pbe-spn-kjpaw_psl.0.2.1.UPF
     MD5 check sum: e86618425769142926afa95317d90200
     Pseudo is Projector augmented-wave + core cor, Zval = 16.0
     Generated using "atomic" code by A. Dal Corso v.5.0.99 svn rev. 10869
     Shape of augmentation charge: PSQ
     Using radial grid of 1191 points,  6 beta functions with:
                l(1) =   0
                l(2) =   0
                l(3) =   1
                l(4) =   1
                l(5) =   2
                l(6) =   2
     Q(r) pseudized with 0 coefficients

     PseudoPot. # 3 for O  read from file:
     ./O.pbe-n-kjpaw_psl.0.1.UPF
     MD5 check sum: 0234752ac141de4415c5fc33072bef88
     Pseudo is Projector augmented-wave + core cor, Zval =  6.0
     Generated using "atomic" code by A. Dal Corso v.5.0.99 svn rev. 10869
     Shape of augmentation charge: BESSEL
     Using radial grid of 1095 points,  4 beta functions with:
                l(1) =   0
                l(2) =   0
                l(3) =   1
                l(4) =   1
     Q(r) pseudized with 0 coefficients

     atomic species   valence    mass     pseudopotential
        P              5.00    30.97376     P ( 1.00)
        Fe            16.00    55.84500     Fe( 1.00)
        O              6.00    15.99940     O ( 1.00)

      8 Sym. Ops., with inversion, found ( 6 have fractional translation)

   Cartesian axes

     site n.     atom                  positions (alat units)
         1           Fe  tau(   1) = (   0.2249200   0.4440976   0.2236364  )
         2           Fe  tau(   2) = (   0.7750800   0.1480325   0.2661681  )
         3           Fe  tau(   3) = (   0.2750800   0.1480325   0.4685387  )
         4           Fe  tau(   4) = (   0.7249200   0.4440976   0.0212658  )
         5           P   tau(   5) = (   0.0963420   0.1480325   0.1988048  )
         6           P   tau(   6) = (   0.9036580   0.4440976   0.2909997  )
         7           P   tau(   7) = (   0.4036580   0.4440976   0.4437071  )
         8           P   tau(   8) = (   0.5963420   0.1480325   0.0460975  )
         9           O   tau(   9) = (   0.1692870   0.0277656   0.1260634  )
        10           O   tau(  10) = (   0.8307130   0.5643646   0.3637411  )
        11           O   tau(  11) = (   0.3307130   0.5643646   0.3709657  )
        12           O   tau(  12) = (   0.6692870   0.0277656   0.1188388  )
        13           O   tau(  13) = (   0.6692870   0.2682995   0.1188388  )
        14           O   tau(  14) = (   0.3307130   0.3238307   0.3709657  )
        15           O   tau(  15) = (   0.8307130   0.3238307   0.3637411  )
        16           O   tau(  16) = (   0.1692870   0.2682995   0.1260634  )
        17           O   tau(  17) = (   0.0542900   0.4440976   0.3183053  )
        18           O   tau(  18) = (   0.9457100   0.1480325   0.1714992  )
        19           O   tau(  19) = (   0.4457100   0.1480325   0.0734031  )
        20           O   tau(  20) = (   0.5542900   0.4440976   0.4164014  )
        21           O   tau(  21) = (   0.1228920   0.1480325   0.3494158  )
        22           O   tau(  22) = (   0.8771080   0.4440976   0.1403888  )
        23           O   tau(  23) = (   0.3771080   0.4440976   0.1045135  )
        24           O   tau(  24) = (   0.6228920   0.1480325   0.3852910  )

     number of k points=     1  gaussian smearing, width (Ry)=  0.0020
                       cart. coord. in units 2pi/alat
        k(    1) = (   0.0000000   0.0000000   0.0000000), wk =   2.0000000

     Check: negative core charge=   -0.003578

     Initial potential from superposition of free atoms

     starting charge  179.99758, renormalised to  180.00000

     negative rho (up, down):  1.274E-03 0.000E+00
     Starting wfcs are  132 randomized atomic wfcs
     Checking if some PAW data can be deallocated...

     Self-consistent Calculation

     iteration #  1     ecut=    30.00 Ry     beta= 0.50
     Davidson diagonalization with overlap
     ethr =  1.00E-02,  avg # of iterations =  3.0

     negative rho (up, down):  7.192E-03 0.000E+00

     total energy              =   -2037.08859445 Ry
     Harris-Foulkes estimate   =   -2041.10693700 Ry
     estimated scf accuracy    <       6.56714081 Ry

[...]

     End of self-consistent calculation

          k = 0.0000 0.0000 0.0000 (  5359 PWs)   bands (ev):

   -82.7821 -82.7816 -82.7800 -82.7797 -47.8001 -47.7971 -47.7939 -47.7931
   -47.7911 -47.7825 -47.7824 -47.7784 -47.4335 -47.4182 -47.4165 -47.4067
   -16.3714 -16.0943 -16.0634 -15.8989 -13.9025 -13.8084 -13.7525 -13.7220
   -13.5603 -13.5292 -13.5267 -13.5198 -13.4985 -13.4226 -13.3962 -13.3660
    -3.9486  -3.2732  -3.2668  -2.9495  -2.0043  -1.6745  -1.4711  -1.3588
    -1.3191  -0.9668  -0.8411  -0.8133  -0.8083  -0.6860  -0.6463  -0.2011
     0.1827   0.4509   0.9261   0.9413   1.1161   1.1830   1.2106   1.3014
     1.4418   1.5261   1.6563   1.9998   2.0544   2.1516   2.1894   2.3485
     2.3955   2.4413   2.5127   2.5287   2.5696   2.5844   3.0574   3.2237
     3.2669   3.3444   3.3893   3.3940   3.4492   3.4628   3.8706   3.9924
     4.6063   4.6417   4.7011   4.7461   4.8458   4.8806   4.9060   4.9139
     5.0273   5.0567   5.0653   5.1162   6.0618   6.0727   6.4536   6.9478
     6.9509   7.0518   7.0840   7.2210   9.5551  11.7831  11.9944  13.0835
    13.2865  13.3010  13.3936  13.7145

     the Fermi energy is     5.0618 ev

!    total energy              =   -2039.82311140 Ry
     Harris-Foulkes estimate   =   -2039.82311071 Ry
     estimated scf accuracy    <       0.00000064 Ry

     The total energy is the sum of the following terms:

     one-electron contribution =   -1059.13904234 Ry
     hartree contribution      =     611.11596472 Ry
     xc contribution           =    -276.98892642 Ry
     ewald contribution        =    -858.19478414 Ry
     one-center paw contrib.   =    -456.61387753 Ry
     smearing contrib. (-TS)   =      -0.00244570 Ry

     convergence has been achieved in  16 iterations

[...]

     Forces acting on atoms (cartesian axes, Ry/au):

     atom    1 type  2   force =     0.05290119    0.00000000   -0.02380760
     atom    2 type  2   force =    -0.05290119    0.00000000    0.02380760
     atom    3 type  2   force =    -0.05290119    0.00000000   -0.02380760
     atom    4 type  2   force =     0.05290119    0.00000000    0.02380760
     atom    5 type  1   force =     0.00749631    0.00000000    0.00422860
     atom    6 type  1   force =    -0.00749631   -0.00000000   -0.00422860
     atom    7 type  1   force =    -0.00749631    0.00000000    0.00422860
     atom    8 type  1   force =     0.00749631    0.00000000   -0.00422860
     atom    9 type  3   force =     0.01169094   -0.02494071   -0.03852828
     atom   10 type  3   force =    -0.01169094    0.02494071    0.03852828
     atom   11 type  3   force =    -0.01169094    0.02494071   -0.03852828
     atom   12 type  3   force =     0.01169094   -0.02494071    0.03852828
     atom   13 type  3   force =     0.01169094    0.02494071    0.03852828
     atom   14 type  3   force =    -0.01169094   -0.02494071   -0.03852828
     atom   15 type  3   force =    -0.01169094   -0.02494071    0.03852828
     atom   16 type  3   force =     0.01169094    0.02494071   -0.03852828
     atom   17 type  3   force =     0.00754022    0.00000000    0.03453028
     atom   18 type  3   force =    -0.00754022    0.00000000   -0.03453028
     atom   19 type  3   force =    -0.00754022   -0.00000000    0.03453028
     atom   20 type  3   force =     0.00754022   -0.00000000   -0.03453028
     atom   21 type  3   force =    -0.03148731    0.00000000    0.03397345
     atom   22 type  3   force =     0.03148731    0.00000000   -0.03397345
     atom   23 type  3   force =     0.03148731    0.00000000    0.03397345
     atom   24 type  3   force =    -0.03148731    0.00000000   -0.03397345

     Total force =     0.212796     Total SCF correction =     0.000756

     Computing stress (Cartesian axis) and pressure

     negative rho (up, down):  2.401E-02 0.000E+00
          total   stress  (Ry/bohr**3)                   (kbar)     P= -454.03
  -0.00296553   0.00000000   0.00000000       -436.24      0.00      0.00
   0.00000000  -0.00288323   0.00000000          0.00   -424.14      0.00
   0.00000000   0.00000000  -0.00341064          0.00      0.00   -501.72

     BFGS Geometry Optimization

     number of scf cycles    =   1
     number of bfgs steps    =   0

     enthalpy new            =   -2039.8231114027 Ry

     new trust radius        =       0.5000000000 bohr
     new conv_thr            =       0.0000010000 Ry

[...]
O        8.966891497   1.406008694   1.602425772
O        4.224732429   1.406008694   0.702222525
O        5.259585707   4.218026082   3.907074070
O        1.155010955   1.406008694   3.299450036
O        8.329307181   4.218026082   1.309846559
O        3.587148113   4.218026082   0.994801739
O        5.897170023   1.406008694   3.614494856

     Writing output data file VLAB.save/
     Message from routine punch:
     wavefunctions written to file
     NEW-OLD atomic charge density approx. for the potential

[...]

     negative rho (up, down):  8.792E-03 0.000E+00
     extrapolated charge  149.17370, renormalised to  180.00000

[...]

     enthalpy old            =   -2039.8231114027 Ry
     enthalpy new            =   -2040.2858931377 Ry

     CASE: enthalpy_new < enthalpy_old

[...]

     iteration #  1     ecut=    30.00 Ry     beta= 0.50
     Davidson diagonalization with overlap
     c_bands:  1 eigenvalues not converged
     ethr =  1.00E-06,  avg # of iterations = 20.0

[...]

          total   stress  (Ry/bohr**3)                   (kbar)     P=    7.49
   0.00004403   0.00000000   0.00000000          6.48      0.00      0.00
   0.00000000  -0.00032183   0.00000000          0.00    -47.34      0.00
   0.00000000   0.00000000   0.00043048          0.00      0.00     63.33

[...]

     Check: negative core charge=   -0.002472
     extrapolated charge  180.29986, renormalised to  180.00000

[...]

     WARNING: bfgs curvature condition failed, Theta= 0.915
     new trust radius        =       0.0725923330 bohr
     new conv_thr            =       0.0000010000 Ry

[...]

     Check: negative core charge=   -0.002422
     extrapolated charge  179.89337, renormalised to  180.00000

[...]

     Total force =     0.003074     Total SCF correction =     0.000506
     SCF correction compared to forces is large: reduce conv_thr to get better values

[...]

     number of scf cycles    =  23
     number of bfgs steps    =  22

     enthalpy old            =   -2040.7276240899 Ry
     enthalpy new            =   -2040.7276367074 Ry

     CASE: enthalpy_new < enthalpy_old

     new trust radius        =       0.0014062778 bohr
     new conv_thr            =       0.0000001000 Ry

     new unit-cell volume =   1526.06475 a.u.^3 (   226.13946 Ang^3 )
     density =      4.42977 g/cm^3

[...]

ATOMIC_POSITIONS (angstrom)
Fe       2.202018680   4.108727670   1.952869399
Fe       7.165340709   1.369575890   2.453826462
Fe       2.481661014   1.369575890   4.156217330
Fe       6.885698375   4.108727670   0.250478531
P        0.716444459   1.369575890   1.571386041
P        8.650914930   4.108727670   2.835309820
P        3.967235236   4.108727670   3.774733971
P        5.400124154   1.369575890   0.631961890
O        1.460057164   0.128045897   0.907291780
O        7.907302225   5.350257662   3.499404081
O        3.223622531   5.350257662   3.110639711
O        6.143736858   0.128045897   1.296056150
O        6.143736858   2.611105883   1.296056150
O        3.223622531   2.867197677   3.110639711
O        7.907302225   2.867197677   3.499404081
O        1.460057164   2.611105883   0.907291780
O        0.757124313   4.108727670   3.216752811
O        8.610235076   1.369575890   1.189943050
O        3.926555381   1.369575890   1.013404880
O        5.440804008   4.108727670   3.393290981
O        0.891307245   1.369575890   3.078390585
O        8.476052145   4.108727670   1.328305276
O        3.792372450   4.108727670   0.875042655
O        5.574986939   1.369575890   3.531653206

     Writing output data file VLAB.save/
     Message from routine punch:
     wavefunctions written to file
     NEW-OLD atomic charge density approx. for the potential

[...]

     negative rho (up, down):  8.660E-05 0.000E+00
     extrapolated charge  180.00972, renormalised to  180.00000

[...]

     Threshold (ethr) on eigenvalues was too large:
     Diagonalizing with lowered threshold

     Davidson diagonalization with overlap
     ethr =  7.85E-08,  avg # of iterations =  2.0

[...]

     negative rho (up, down):  8.722E-05 0.000E+00

[...]

     Total force =     0.001876     Total SCF correction =     0.000202
     SCF correction compared to forces is large: reduce conv_thr to get better values

[...]

     negative rho (up, down):  8.722E-05 0.000E+00
          total   stress  (Ry/bohr**3)                   (kbar)     P=   -0.06
  -0.00000044   0.00000000   0.00000000         -0.06      0.00      0.00
   0.00000000   0.00000189   0.00000000          0.00      0.28      0.00
   0.00000000   0.00000000  -0.00000263          0.00      0.00     -0.39

     bfgs converged in  24 scf cycles and  23 bfgs steps
     (criteria: energy <  1.0E-04 Ry, force <  1.0E-03Ry/Bohr, cell <  5.0E-01kbar)

     End of BFGS Geometry Optimization

     Final enthalpy =   -2040.7276396589 Ry
Begin final coordinates
     new unit-cell volume =   1526.06475 a.u.^3 (   226.13946 Ang^3 )
     density =      4.42977 g/cm^3

CELL_PARAMETERS (angstrom)
   9.367359389   0.000000000   0.000000000
   0.000000000   5.478303559   0.000000000
   0.000000000   0.000000000   4.406695861

ATOMIC_POSITIONS (angstrom)
Fe       2.202018680   4.108727670   1.952869399
Fe       7.165340709   1.369575890   2.453826462
Fe       2.481661014   1.369575890   4.156217330
Fe       6.885698375   4.108727670   0.250478531
P        0.716444459   1.369575890   1.571386041
P        8.650914930   4.108727670   2.835309820
P        3.967235236   4.108727670   3.774733971
P        5.400124154   1.369575890   0.631961890
O        1.460057164   0.128045897   0.907291780
O        7.907302225   5.350257662   3.499404081
O        3.223622531   5.350257662   3.110639711
O        6.143736858   0.128045897   1.296056150
O        6.143736858   2.611105883   1.296056150
O        3.223622531   2.867197677   3.110639711
O        7.907302225   2.867197677   3.499404081
O        1.460057164   2.611105883   0.907291780
O        0.757124313   4.108727670   3.216752811
O        8.610235076   1.369575890   1.189943050
O        3.926555381   1.369575890   1.013404880
O        5.440804008   4.108727670   3.393290981
O        0.891307245   1.369575890   3.078390585
O        8.476052145   4.108727670   1.328305276
O        3.792372450   4.108727670   0.875042655
O        5.574986939   1.369575890   3.531653206
End final coordinates

     Writing output data file VLAB.save/
     Message from routine punch:
     wavefunctions written to file

     A final scf calculation at the relaxed structure.
     The G-vectors are recalculated for the final unit cell
     Results may differ from those at the preceding step.

     bravais-lattice index     =            0
     lattice parameter (alat)  =      18.8524  a.u.
     unit-cell volume          =    1526.0647 (a.u.)^3
     number of atoms/cell      =           24
     number of atomic types    =            3
     number of electrons       =       180.00
     number of Kohn-Sham states=          108
     kinetic-energy cutoff     =      30.0000  Ry
     charge density cutoff     =     120.0000  Ry
     convergence threshold     =      1.0E-07
     mixing beta               =       0.5000
     number of iterations used =            8  plain     mixing
     Exchange-correlation      = SLA PW PBX PBC ( 1  4  3  4 0 0)

     celldm(1)=  18.852379  celldm(2)=   0.000000  celldm(3)=   0.000000
     celldm(4)=   0.000000  celldm(5)=   0.000000  celldm(6)=   0.000000

     crystal axes: (cart. coord. in units of alat)
               a(1) = (   0.938966   0.000000   0.000000 )
               a(2) = (   0.000000   0.549135   0.000000 )
               a(3) = (   0.000000   0.000000   0.441719 )

     reciprocal axes: (cart. coord. in units 2 pi/alat)
               b(1) = (  1.065001  0.000000  0.000000 )
               b(2) = (  0.000000  1.821047  0.000000 )
               b(3) = (  0.000000  0.000000  2.263884 )

     PseudoPot. # 1 for P  read from file:
     ./P.pbe-n-rrkjus_psl.1.0.0.UPF
     MD5 check sum: 8b930f418f0a4573dca56cd030ffe088
     Pseudo is Ultrasoft + core correction, Zval =  5.0
     Generated using "atomic" code by A. Dal Corso v.5.1
     Using radial grid of 1147 points,  6 beta functions with:
                l(1) =   0
                l(2) =   0
                l(3) =   1
                l(4) =   1
                l(5) =   2
                l(6) =   2
     Q(r) pseudized with 0 coefficients

     PseudoPot. # 2 for Fe read from file:
     ./Fe.pbe-spn-kjpaw_psl.0.2.1.UPF
     MD5 check sum: e86618425769142926afa95317d90200
     Pseudo is Projector augmented-wave + core cor, Zval = 16.0
     Generated using "atomic" code by A. Dal Corso v.5.0.99 svn rev. 10869
     Shape of augmentation charge: PSQ
     Using radial grid of 1191 points,  6 beta functions with:
                l(1) =   0
                l(2) =   0
                l(3) =   1
                l(4) =   1
                l(5) =   2
                l(6) =   2
     Q(r) pseudized with 0 coefficients

     PseudoPot. # 3 for O  read from file:
     ./O.pbe-n-kjpaw_psl.0.1.UPF
     MD5 check sum: 0234752ac141de4415c5fc33072bef88
     Pseudo is Projector augmented-wave + core cor, Zval =  6.0
     Generated using "atomic" code by A. Dal Corso v.5.0.99 svn rev. 10869
     Shape of augmentation charge: BESSEL
     Using radial grid of 1095 points,  4 beta functions with:
                l(1) =   0
                l(2) =   0
                l(3) =   1
                l(4) =   1
     Q(r) pseudized with 0 coefficients

     atomic species   valence    mass     pseudopotential
        P              5.00    30.97376     P ( 1.00)
        Fe            16.00    55.84500     Fe( 1.00)
        O              6.00    15.99940     O ( 1.00)

      8 Sym. Ops., with inversion, found ( 6 have fractional translation)

   Cartesian axes

     site n.     atom                  positions (alat units)
         1           Fe  tau(   1) = (   0.2207261   0.4118509   0.1957519  )
         2           Fe  tau(   2) = (   0.7182399   0.1372836   0.2459668  )
         3           Fe  tau(   3) = (   0.2487569   0.1372836   0.4166112  )
         4           Fe  tau(   4) = (   0.6902091   0.4118509   0.0251075  )
         5           P   tau(   5) = (   0.0718150   0.1372836   0.1575127  )
         6           P   tau(   6) = (   0.8671510   0.4118509   0.2842060  )
         7           P   tau(   7) = (   0.3976680   0.4118509   0.3783720  )
         8           P   tau(   8) = (   0.5412980   0.1372836   0.0633466  )
         9           O   tau(   9) = (   0.1463533   0.0128351   0.0909452  )
        10           O   tau(  10) = (   0.7926127   0.5362995   0.3507735  )
        11           O   tau(  11) = (   0.3231297   0.5362995   0.3118045  )
        12           O   tau(  12) = (   0.6158363   0.0128351   0.1299142  )
        13           O   tau(  13) = (   0.6158363   0.2617322   0.1299142  )
        14           O   tau(  14) = (   0.3231297   0.2874024   0.3118045  )
        15           O   tau(  15) = (   0.7926127   0.2874024   0.3507735  )
        16           O   tau(  16) = (   0.1463533   0.2617322   0.0909452  )
        17           O   tau(  17) = (   0.0758927   0.4118509   0.3224411  )
        18           O   tau(  18) = (   0.8630733   0.1372836   0.1192776  )
        19           O   tau(  19) = (   0.3935903   0.1372836   0.1015817  )
        20           O   tau(  20) = (   0.5453757   0.4118509   0.3401369  )
        21           O   tau(  21) = (   0.0893429   0.1372836   0.3085719  )
        22           O   tau(  22) = (   0.8496231   0.4118509   0.1331468  )
        23           O   tau(  23) = (   0.3801401   0.4118509   0.0877126  )
        24           O   tau(  24) = (   0.5588259   0.1372836   0.3540061  )

     number of k points=     1  gaussian smearing, width (Ry)=  0.0020
                       cart. coord. in units 2pi/alat
        k(    1) = (   0.0000000   0.0000000   0.0000000), wk =   2.0000000

     Check: negative core charge=   -0.004036

     Initial potential from superposition of free atoms

     starting charge  179.99758, renormalised to  180.00000
     Starting wfcs are  132 randomized atomic wfcs
     Checking if some PAW data can be deallocated...

     Self-consistent Calculation

[...]

     total energy              =   -2039.79062867 Ry
     Harris-Foulkes estimate   =   -2039.79062868 Ry
     estimated scf accuracy    <       0.00000040 Ry

     iteration # 15     ecut=    30.00 Ry     beta= 0.50
     Davidson diagonalization with overlap
     ethr =  2.23E-10,  avg # of iterations =  3.0

     End of self-consistent calculation

          k = 0.0000 0.0000 0.0000 (  4227 PWs)   bands (ev):

   -79.0267 -79.0212 -79.0204 -79.0188 -44.1590 -44.1315 -44.1210 -44.1200
   -43.9931 -43.9830 -43.9759 -43.9642 -43.6823 -43.6705 -43.6657 -43.6516
   -13.5193 -13.0984 -12.8730 -12.6528 -10.8637 -10.5487 -10.5409 -10.4627
   -10.4539 -10.4351 -10.4214 -10.3780 -10.3702 -10.3420 -10.1514  -9.9911
    -0.8505  -0.2336   0.1763   0.2104   0.7228   1.1842   1.4369   1.4600
     1.5771   1.7421   2.2288   2.4043   2.4687   2.6554   2.7305   2.8286
     3.3287   3.7903   3.8156   3.9546   3.9777   4.3093   4.4638   4.4973
     4.5048   4.6111   4.7017   5.0216   5.2341   5.3038   5.3663   5.4910
     5.5003   5.5725   6.0025   6.0190   6.2279   6.2985   6.3142   6.5140
     6.6894   6.7412   6.8581   6.9106   6.9456   6.9760   7.0876   7.6501
     8.0662   8.1078   8.1711   8.2974   8.5030   8.5696   8.6176   8.6495
     8.7414   8.7673   8.7713   8.9170  10.4952  10.5585  10.5595  11.1254
    11.3432  11.3700  11.7185  11.7269  13.9640  16.0712  16.1827  16.3374
    16.6570  16.6818  17.0085  17.0563

     the Fermi energy is     8.7708 ev

!    total energy              =   -2039.79062873 Ry
     Harris-Foulkes estimate   =   -2039.79062872 Ry
     estimated scf accuracy    <       0.00000005 Ry

     The total energy is the sum of the following terms:

     one-electron contribution =    -825.31942769 Ry
     hartree contribution      =     517.03067713 Ry
     xc contribution           =    -278.22993970 Ry
     ewald contribution        =    -996.63284899 Ry
     one-center paw contrib.   =    -456.63650183 Ry
     smearing contrib. (-TS)   =      -0.00258765 Ry

     convergence has been achieved in  15 iterations

     Forces acting on atoms (cartesian axes, Ry/au):

     atom    1 type  2   force =    -0.03435391    0.00000000    0.11521701
     atom    2 type  2   force =     0.03435391    0.00000000   -0.11521701
     atom    3 type  2   force =     0.03435391    0.00000000    0.11521701
     atom    4 type  2   force =    -0.03435391    0.00000000   -0.11521701
     atom    5 type  1   force =     0.00918973   -0.00000000   -0.00054893
     atom    6 type  1   force =    -0.00918973   -0.00000000    0.00054893
     atom    7 type  1   force =    -0.00918973    0.00000000   -0.00054893
     atom    8 type  1   force =     0.00918973    0.00000000    0.00054893
     atom    9 type  3   force =    -0.01568550   -0.01118069   -0.00109798
     atom   10 type  3   force =     0.01568550    0.01118069    0.00109798
     atom   11 type  3   force =     0.01568550    0.01118069   -0.00109798
     atom   12 type  3   force =    -0.01568550   -0.01118069    0.00109798
     atom   13 type  3   force =    -0.01568550    0.01118069    0.00109798
     atom   14 type  3   force =     0.01568550   -0.01118069   -0.00109798
     atom   15 type  3   force =     0.01568550   -0.01118069    0.00109798
     atom   16 type  3   force =    -0.01568550    0.01118069   -0.00109798
     atom   17 type  3   force =     0.00476408    0.00000000    0.01205405
     atom   18 type  3   force =    -0.00476408    0.00000000   -0.01205405
     atom   19 type  3   force =    -0.00476408    0.00000000    0.01205405
     atom   20 type  3   force =     0.00476408    0.00000000   -0.01205405
     atom   21 type  3   force =    -0.01353845    0.00000000    0.00638221
     atom   22 type  3   force =     0.01353845    0.00000000   -0.00638221
     atom   23 type  3   force =     0.01353845    0.00000000    0.00638221
     atom   24 type  3   force =    -0.01353845    0.00000000   -0.00638221

     Total force =     0.250411     Total SCF correction =     0.000161

     Computing stress (Cartesian axis) and pressure

          total   stress  (Ry/bohr**3)                   (kbar)     P= -382.59
  -0.00237606   0.00000000   0.00000000       -349.53      0.00      0.00
   0.00000000  -0.00257524   0.00000000          0.00   -378.83      0.00
   0.00000000   0.00000000  -0.00285109          0.00      0.00   -419.41

     Writing output data file VLAB.save/

     General routines

     Parallel routines

   This run was terminated on:   7:30:31  16Apr2020

   JOB DONE.