     Program PWSCF v.6.4.1 starts on 16Apr2020 at  7:31:38

     R & G space division:  proc/nbgrp/npool/nimage =      48
     Waiting for input...
     Reading input from standard input

     Current dimensions of program PWSCF are:
     Max number of different atomic species (ntypx) = 10
     Max number of k-points (npk) =  40000
     Max angular momentum in pseudopotentials (lmaxx) =  3

     Found symmetry operation: I + ( -0.5000 -0.5000 -0.5000)
     This is a supercell, fractional translations are disabled
     Message from routine setup:
     DEPRECATED: symmetry with ibrav=0, use correct ibrav instead

     bravais-lattice index     =            0
     lattice parameter (alat)  =       6.4757  a.u.
     unit-cell volume          =     271.5623 (a.u.)^3
     number of atoms/cell      =            2
     number of atomic types    =            1
     number of electrons       =         6.00
     number of Kohn-Sham states=            7
     kinetic-energy cutoff     =      30.0000  Ry
     charge density cutoff     =     120.0000  Ry
     convergence threshold     =      1.0E-06
     mixing beta               =       0.5000
     number of iterations used =            8  plain     mixing
     Exchange-correlation      =  SLA  PW   PBX  PBC ( 1  4  3  4 0 0)
     nstep                     =          100

     celldm(1)=   6.475746  celldm(2)=   0.000000  celldm(3)=   0.000000
     celldm(4)=   0.000000  celldm(5)=   0.000000  celldm(6)=   0.000000

     crystal axes: (cart. coord. in units of alat)
               a(1) = (   1.000000   0.000000   0.000000 )
               a(2) = (   0.000000   1.000000   0.000000 )
               a(3) = (   0.000000   0.000000   1.000000 )

     reciprocal axes: (cart. coord. in units 2 pi/alat)
               b(1) = (  1.000000  0.000000  0.000000 )
               b(2) = (  0.000000  1.000000  0.000000 )
               b(3) = (  0.000000  0.000000  1.000000 )

     PseudoPot. # 1 for Li read from file:
     ./li_pbe_v1.4.uspp.F.UPF
     MD5 check sum: e912e257baa3777c20ea3d68f190483c
     Pseudo is Ultrasoft, Zval =  3.0
     Generated by new atomic code, or converted to UPF format
     Using radial grid of  751 points,  5 beta functions with:
                l(1) =   0
                l(2) =   0
                l(3) =   0
                l(4) =   1
                l(5) =   1
     Q(r) pseudized with 10 coefficients,  rinner =    1.150   1.150   1.150

     atomic species   valence    mass     pseudopotential
        Li             3.00     6.94100     Li( 1.00)

     48 Sym. Ops., with inversion, found

   Cartesian axes

     site n.     atom                  positions (alat units)
         1           Li  tau(   1) = (   0.0000000   0.0000000   0.0000000  )
         2           Li  tau(   2) = (   0.5000000   0.5000000   0.5000000  )

     number of k points=     1  gaussian smearing, width (Ry)=  0.0020
                       cart. coord. in units 2pi/alat
        k(    1) = (   0.0000000   0.0000000   0.0000000), wk =   2.0000000

     Initial potential from superposition of free atoms

     starting charge    5.09851, renormalised to    6.00000
     Starting wfcs are   10 randomized atomic wfcs

     Self-consistent Calculation

     iteration #  1     ecut=    30.00 Ry     beta= 0.50
     Davidson diagonalization with overlap
     ethr =  1.00E-02,  avg # of iterations =  2.0

     total energy              =     -29.29404155 Ry
     Harris-Foulkes estimate   =     -29.48231092 Ry
     estimated scf accuracy    <       0.31751865 Ry

[...]

     End of self-consistent calculation

          k = 0.0000 0.0000 0.0000 (   739 PWs)   bands (ev):

   -45.4748 -45.4404  -2.6299   6.4996   6.4996   6.4996   8.7583

     the Fermi energy is     2.0200 ev

!    total energy              =     -29.26447193 Ry
     Harris-Foulkes estimate   =     -29.26447142 Ry
     estimated scf accuracy    <       0.00000033 Ry

     The total energy is the sum of the following terms:

     one-electron contribution =     -19.70070695 Ry
     hartree contribution      =       7.33427579 Ry
     xc contribution           =      -6.78241822 Ry
     ewald contribution        =     -10.11562255 Ry
     smearing contrib. (-TS)   =      -0.00000000 Ry

     convergence has been achieved in   5 iterations

     Forces acting on atoms (cartesian axes, Ry/au):

     atom    1 type  1   force =     0.00000000    0.00000000    0.00000000
     atom    2 type  1   force =     0.00000000    0.00000000   -0.00000000

     Total force =     0.000000     Total SCF correction =     0.000000

     Computing stress (Cartesian axis) and pressure

          total   stress  (Ry/bohr**3)                   (kbar)     P=  -76.91
  -0.00052283   0.00000000   0.00000000        -76.91      0.00      0.00
   0.00000000  -0.00052283   0.00000000          0.00    -76.91      0.00
   0.00000000   0.00000000  -0.00052283          0.00      0.00    -76.91

     BFGS Geometry Optimization

     number of scf cycles    =   1
     number of bfgs steps    =   0

     enthalpy new            =     -29.2644719334 Ry

     new trust radius        =       0.0430787467 bohr
     new conv_thr            =       0.0000010000 Ry

     new unit-cell volume =    261.05232 a.u.^3 (    38.68396 Ang^3 )
     density =      0.59590 g/cm^3

CELL_PARAMETERS (angstrom)
   3.382026341   0.000000000   0.000000000
   0.000000000   3.382026341   0.000000000
   0.000000000   0.000000000   3.382026341

ATOMIC_POSITIONS (angstrom)
Li       0.000000000   0.000000000   0.000000000
Li       1.691013170   1.691013170   1.691013170

     Writing output data file VLAB.save/
     Message from routine punch:
     wavefunctions written to file
     NEW-OLD atomic charge density approx. for the potential
     extrapolated charge    5.79473, renormalised to    6.00000

[...]

     enthalpy old            =     -29.2644719334 Ry
     enthalpy new            =     -29.2696308751 Ry

     CASE: enthalpy_new < enthalpy_old

     WARNING: bfgs curvature condition failed, Theta= 0.911
     new trust radius        =       0.0641944295 bohr
     new conv_thr            =       0.0000001000 Ry

[...]

     number of scf cycles    =   6
     number of bfgs steps    =   5

     enthalpy old            =     -29.2856904751 Ry
     enthalpy new            =     -29.2859024626 Ry

     CASE: enthalpy_new < enthalpy_old

     new trust radius        =       0.0032953078 bohr
     new conv_thr            =       0.0000001000 Ry

     new unit-cell volume =    201.68723 a.u.^3 (    29.88696 Ang^3 )
     density =      0.77129 g/cm^3

[...]

ATOMIC_POSITIONS (angstrom)
Li       0.000000000   0.000000000  -0.000000000
Li       1.551662523   1.551662523   1.551662523

     Writing output data file VLAB.save/
     Message from routine punch:
     wavefunctions written to file
     NEW-OLD atomic charge density approx. for the potential
     extrapolated charge    5.98224, renormalised to    6.00000

[...]

     bfgs converged in   7 scf cycles and   6 bfgs steps
     (criteria: energy <  1.0E-04 Ry, force <  1.0E-03Ry/Bohr, cell <  5.0E-01kbar)

     End of BFGS Geometry Optimization

     Final enthalpy =     -29.2859072708 Ry
Begin final coordinates
     new unit-cell volume =    201.68723 a.u.^3 (    29.88696 Ang^3 )
     density =      0.77129 g/cm^3

CELL_PARAMETERS (angstrom)
   3.103325046   0.000000000   0.000000000
   0.000000000   3.103325046   0.000000000
   0.000000000   0.000000000   3.103325046

ATOMIC_POSITIONS (angstrom)
Li       0.000000000   0.000000000  -0.000000000
Li       1.551662523   1.551662523   1.551662523
End final coordinates

     Writing output data file VLAB.save/
     Message from routine punch:
     wavefunctions written to file

     A final scf calculation at the relaxed structure.
     The G-vectors are recalculated for the final unit cell
     Results may differ from those at the preceding step.

     bravais-lattice index     =            0
     lattice parameter (alat)  =       6.4757  a.u.
     unit-cell volume          =     201.6872 (a.u.)^3
     number of atoms/cell      =            2
     number of atomic types    =            1
     number of electrons       =         6.00
     number of Kohn-Sham states=            7
     kinetic-energy cutoff     =      30.0000  Ry
     charge density cutoff     =     120.0000  Ry
     convergence threshold     =      1.0E-07
     mixing beta               =       0.5000
     number of iterations used =            8  plain     mixing
     Exchange-correlation      =  SLA  PW   PBX  PBC ( 1  4  3  4 0 0)

     celldm(1)=   6.475746  celldm(2)=   0.000000  celldm(3)=   0.000000
     celldm(4)=   0.000000  celldm(5)=   0.000000  celldm(6)=   0.000000

     crystal axes: (cart. coord. in units of alat)
               a(1) = (   0.905600   0.000000   0.000000 )
               a(2) = (   0.000000   0.905600   0.000000 )
               a(3) = (   0.000000   0.000000   0.905600 )

     reciprocal axes: (cart. coord. in units 2 pi/alat)
               b(1) = (  1.104240  0.000000  0.000000 )
               b(2) = (  0.000000  1.104240  0.000000 )
               b(3) = (  0.000000  0.000000  1.104240 )

     PseudoPot. # 1 for Li read from file:
     ./li_pbe_v1.4.uspp.F.UPF
     MD5 check sum: e912e257baa3777c20ea3d68f190483c
     Pseudo is Ultrasoft, Zval =  3.0
     Generated by new atomic code, or converted to UPF format
     Using radial grid of  751 points,  5 beta functions with:
                l(1) =   0
                l(2) =   0
                l(3) =   0
                l(4) =   1
                l(5) =   1
     Q(r) pseudized with 10 coefficients,  rinner =    1.150   1.150   1.150

     atomic species   valence    mass     pseudopotential
        Li             3.00     6.94100     Li( 1.00)

     48 Sym. Ops., with inversion, found

   Cartesian axes

     site n.     atom                  positions (alat units)
         1           Li  tau(   1) = (   0.0000000   0.0000000  -0.0000000  )
         2           Li  tau(   2) = (   0.4527999   0.4527999   0.4527999  )

     number of k points=     1  gaussian smearing, width (Ry)=  0.0020
                       cart. coord. in units 2pi/alat
        k(    1) = (   0.0000000   0.0000000   0.0000000), wk =   2.0000000

     Initial potential from superposition of free atoms

     starting charge    5.09851, renormalised to    6.00000
     Starting wfcs are   10 randomized atomic wfcs

     Self-consistent Calculation

[...]

     total energy              =     -29.28465211 Ry
     Harris-Foulkes estimate   =     -29.28465170 Ry
     estimated scf accuracy    <       0.00000018 Ry

     iteration #  6     ecut=    30.00 Ry     beta= 0.50
     Davidson diagonalization with overlap
     ethr =  3.06E-09,  avg # of iterations =  2.0

     End of self-consistent calculation

          k = 0.0000 0.0000 0.0000 (   587 PWs)   bands (ev):

   -43.8927 -43.7862  -1.9167   8.7489   8.7489   8.7489  11.2736

     the Fermi energy is     4.4187 ev

!    total energy              =     -29.28465219 Ry
     Harris-Foulkes estimate   =     -29.28465219 Ry
     estimated scf accuracy    <          1.5E-09 Ry

     The total energy is the sum of the following terms:

     one-electron contribution =     -18.13886400 Ry
     hartree contribution      =       6.91609949 Ry
     xc contribution           =      -6.89180762 Ry
     ewald contribution        =     -11.17008007 Ry
     smearing contrib. (-TS)   =      -0.00000000 Ry

     convergence has been achieved in   6 iterations

     Forces acting on atoms (cartesian axes, Ry/au):

     atom    1 type  1   force =     0.00000000   -0.00000000    0.00000000
     atom    2 type  1   force =     0.00000000    0.00000000   -0.00000000

     Total force =     0.000000     Total SCF correction =     0.000000

     Computing stress (Cartesian axis) and pressure

          total   stress  (Ry/bohr**3)                   (kbar)     P=   -9.59
  -0.00006516   0.00000000   0.00000000         -9.59      0.00      0.00
   0.00000000  -0.00006516   0.00000000          0.00     -9.59      0.00
   0.00000000   0.00000000  -0.00006516          0.00      0.00     -9.59

     Writing output data file VLAB.save/

     General routines

     Parallel routines

   This run was terminated on:   7:31:44  16Apr2020

   JOB DONE.