     Program PWSCF v.6.4.1 starts on 16Apr2020 at  7:43: 1

     R & G space division:  proc/nbgrp/npool/nimage =      48
     Waiting for input...
     Reading input from standard input

     Current dimensions of program PWSCF are:
     Max number of different atomic species (ntypx) = 10
     Max number of k-points (npk) =  40000
     Max angular momentum in pseudopotentials (lmaxx) =  3
               file Fe.pbe-spn-kjpaw_psl.0.2.1.UPF: wavefunction(s)  3D renormalized
               file O.pbe-n-kjpaw_psl.0.1.UPF: wavefunction(s)  2P renormalized

     Message from routine setup:
     DEPRECATED: symmetry with ibrav=0, use correct ibrav instead

     bravais-lattice index     =            0
     lattice parameter (alat)  =      19.7533  a.u.
     unit-cell volume          =    2040.8545 (a.u.)^3
     number of atoms/cell      =           28
     number of atomic types    =            4
     number of electrons       =       192.00
     number of Kohn-Sham states=          115
     kinetic-energy cutoff     =      30.0000  Ry
     charge density cutoff     =     180.0000  Ry
     convergence threshold     =      1.0E-06
     mixing beta               =       0.5000
     number of iterations used =            8  plain     mixing
     Exchange-correlation      =  SLA  PW   PBX  PBC ( 1  4  3  4 0 0)
     nstep                     =          200

     celldm(1)=  19.753284  celldm(2)=   0.000000  celldm(3)=   0.000000
     celldm(4)=   0.000000  celldm(5)=   0.000000  celldm(6)=   0.000000

     crystal axes: (cart. coord. in units of alat)
               a(1) = (   1.000000   0.000000   0.000000 )
               a(2) = (   0.000000   0.582273   0.000000 )
               a(3) = (   0.000000   0.000000   0.454744 )

     reciprocal axes: (cart. coord. in units 2 pi/alat)
               b(1) = (  1.000000  0.000000  0.000000 )
               b(2) = (  0.000000  1.717407  0.000000 )
               b(3) = (  0.000000  0.000000  2.199038 )

     PseudoPot. # 1 for P  read from file:
     ./P.pbe-n-rrkjus_psl.1.0.0.UPF
     MD5 check sum: 8b930f418f0a4573dca56cd030ffe088
     Pseudo is Ultrasoft + core correction, Zval =  5.0
     Generated using "atomic" code by A. Dal Corso v.5.1
     Using radial grid of 1147 points,  6 beta functions with:
                l(1) =   0
                l(2) =   0
                l(3) =   1
                l(4) =   1
                l(5) =   2
                l(6) =   2
     Q(r) pseudized with 0 coefficients

     PseudoPot. # 2 for Fe read from file:
     ./Fe.pbe-spn-kjpaw_psl.0.2.1.UPF
     MD5 check sum: e86618425769142926afa95317d90200
     Pseudo is Projector augmented-wave + core cor, Zval = 16.0
     Generated using "atomic" code by A. Dal Corso v.5.0.99 svn rev. 10869
     Shape of augmentation charge: PSQ
     Using radial grid of 1191 points,  6 beta functions with:
                l(1) =   0
                l(2) =   0
                l(3) =   1
                l(4) =   1
                l(5) =   2
                l(6) =   2
     Q(r) pseudized with 0 coefficients

     PseudoPot. # 3 for O  read from file:
     ./O.pbe-n-kjpaw_psl.0.1.UPF
     MD5 check sum: 0234752ac141de4415c5fc33072bef88
     Pseudo is Projector augmented-wave + core cor, Zval =  6.0
     Generated using "atomic" code by A. Dal Corso v.5.0.99 svn rev. 10869
     Shape of augmentation charge: BESSEL
     Using radial grid of 1095 points,  4 beta functions with:
                l(1) =   0
                l(2) =   0
                l(3) =   1
                l(4) =   1
     Q(r) pseudized with 0 coefficients

     PseudoPot. # 4 for Li read from file:
     ./li_pbe_v1.4.uspp.F.UPF
     MD5 check sum: e912e257baa3777c20ea3d68f190483c
     Pseudo is Ultrasoft, Zval =  3.0
     Generated by new atomic code, or converted to UPF format
     Using radial grid of  751 points,  5 beta functions with:
                l(1) =   0
                l(2) =   0
                l(3) =   0
                l(4) =   1
                l(5) =   1
     Q(r) pseudized with 10 coefficients,  rinner =    1.150   1.150   1.150

     atomic species   valence    mass     pseudopotential
        P              5.00    30.97376     P ( 1.00)
        Fe            16.00    55.84500     Fe( 1.00)
        O              6.00    15.99940     O ( 1.00)
        Li             3.00     6.94100     Li( 1.00)

      8 Sym. Ops., with inversion, found ( 6 have fractional translation)

                                    s                        frac. trans.

      isym =  1     identity

 cryst.   s( 1) = (     1          0          0      )
                  (     0          1          0      )
                  (     0          0          1      )

 cart.    s( 1) = (  1.0000000  0.0000000  0.0000000 )
                  (  0.0000000  1.0000000  0.0000000 )
                  (  0.0000000  0.0000000  1.0000000 )

      isym =  2     180 deg rotation - cart. axis [0,0,1]

 cryst.   s( 2) = (    -1          0          0      )    f =(  0.5000000 )
                  (     0         -1          0      )       (  0.0000000 )
                  (     0          0          1      )       ( -0.5000000 )

 cart.    s( 2) = ( -1.0000000  0.0000000  0.0000000 )    f =(  0.5000000 )
                  (  0.0000000 -1.0000000  0.0000000 )       (  0.0000000 )
                  (  0.0000000  0.0000000  1.0000000 )       ( -0.2273722 )

[...]

      isym =  5     inversion

[...]

      isym =  6     inv. 180 deg rotation - cart. axis [0,0,1]

[...]

   Cartesian axes

     site n.     atom                  positions (alat units)
         1           Li  tau(   1) = (   0.0000000   0.0000000   0.0000000  )
         2           Li  tau(   2) = (   0.5000000   0.0000000   0.2273722  )
         3           Li  tau(   3) = (   0.5000000   0.2911366   0.2273722  )
         4           Li  tau(   4) = (   0.0000000   0.2911366   0.0000000  )
         5           Fe  tau(   5) = (   0.2185060   0.4367049   0.2164738  )
         6           Fe  tau(   6) = (   0.7814940   0.1455683   0.2382706  )
         7           Fe  tau(   7) = (   0.2814940   0.1455683   0.4438459  )
         8           Fe  tau(   8) = (   0.7185060   0.4367049   0.0108984  )
         9           P   tau(   9) = (   0.0946680   0.1455683   0.1904669  )
        10           P   tau(  10) = (   0.9053320   0.4367049   0.2642774  )
        11           P   tau(  11) = (   0.4053320   0.4367049   0.4178391  )
        12           P   tau(  12) = (   0.5946680   0.1455683   0.0369052  )
        13           O   tau(  13) = (   0.1656890   0.0274210   0.1301224  )
        14           O   tau(  14) = (   0.8343110   0.5548522   0.3246220  )
        15           O   tau(  15) = (   0.3343110   0.5548522   0.3574945  )
        16           O   tau(  16) = (   0.6656890   0.0274210   0.0972498  )
        17           O   tau(  17) = (   0.6656890   0.2637156   0.0972498  )
        18           O   tau(  18) = (   0.3343110   0.3185576   0.3574945  )
        19           O   tau(  19) = (   0.8343110   0.3185576   0.3246220  )
        20           O   tau(  20) = (   0.1656890   0.2637156   0.1301224  )
        21           O   tau(  21) = (   0.0427110   0.4367049   0.3213164  )
        22           O   tau(  22) = (   0.9572890   0.1455683   0.1334279  )
        23           O   tau(  23) = (   0.4572890   0.1455683   0.0939443  )
        24           O   tau(  24) = (   0.5427110   0.4367049   0.3608001  )
        25           O   tau(  25) = (   0.0965200   0.1455683   0.3375663  )
        26           O   tau(  26) = (   0.9034800   0.4367049   0.1171781  )
        27           O   tau(  27) = (   0.4034800   0.4367049   0.1101941  )
        28           O   tau(  28) = (   0.5965200   0.1455683   0.3445502  )

   Crystallographic axes

     site n.     atom                  positions (cryst. coord.)
         1           Li  tau(   1) = (  0.0000000  0.0000000  0.0000000  )
         2           Li  tau(   2) = (  0.5000000  0.0000000  0.5000000  )
         3           Li  tau(   3) = (  0.5000000  0.5000000  0.5000000  )
         4           Li  tau(   4) = (  0.0000000  0.5000000  0.0000000  )
         5           Fe  tau(   5) = (  0.2185060  0.7500000  0.4760340  )
         6           Fe  tau(   6) = (  0.7814940  0.2500000  0.5239660  )
         7           Fe  tau(   7) = (  0.2814940  0.2500000  0.9760340  )
         8           Fe  tau(   8) = (  0.7185060  0.7500000  0.0239660  )
         9           P   tau(   9) = (  0.0946680  0.2500000  0.4188440  )
        10           P   tau(  10) = (  0.9053320  0.7500000  0.5811560  )
        11           P   tau(  11) = (  0.4053320  0.7500000  0.9188440  )
        12           P   tau(  12) = (  0.5946680  0.2500000  0.0811560  )
        13           O   tau(  13) = (  0.1656890  0.0470930  0.2861440  )
        14           O   tau(  14) = (  0.8343110  0.9529070  0.7138560  )
        15           O   tau(  15) = (  0.3343110  0.9529070  0.7861440  )
        16           O   tau(  16) = (  0.6656890  0.0470930  0.2138560  )
        17           O   tau(  17) = (  0.6656890  0.4529070  0.2138560  )
        18           O   tau(  18) = (  0.3343110  0.5470930  0.7861440  )
        19           O   tau(  19) = (  0.8343110  0.5470930  0.7138560  )
        20           O   tau(  20) = (  0.1656890  0.4529070  0.2861440  )
        21           O   tau(  21) = (  0.0427110  0.7500000  0.7065870  )
        22           O   tau(  22) = (  0.9572890  0.2500000  0.2934130  )
        23           O   tau(  23) = (  0.4572890  0.2500000  0.2065870  )
        24           O   tau(  24) = (  0.5427110  0.7500000  0.7934130  )
        25           O   tau(  25) = (  0.0965200  0.2500000  0.7423210  )
        26           O   tau(  26) = (  0.9034800  0.7500000  0.2576790  )
        27           O   tau(  27) = (  0.4034800  0.7500000  0.2423210  )
        28           O   tau(  28) = (  0.5965200  0.2500000  0.7576790  )

     number of k points=    24  gaussian smearing, width (Ry)=  0.0020
                       cart. coord. in units 2pi/alat
        k(    1) = (   0.0000000   0.0000000   0.0000000), wk =   0.0222222
        k(    2) = (   0.0000000   0.0000000   0.3665063), wk =   0.0444444
        k(    3) = (   0.0000000   0.0000000   0.7330126), wk =   0.0444444
        k(    4) = (   0.0000000   0.0000000  -1.0995189), wk =   0.0222222
        k(    5) = (   0.0000000   0.3434814   0.0000000), wk =   0.0444444
        k(    6) = (   0.0000000   0.3434814   0.3665063), wk =   0.0888889
        k(    7) = (   0.0000000   0.3434814   0.7330126), wk =   0.0888889
        k(    8) = (   0.0000000   0.3434814  -1.0995189), wk =   0.0444444
        k(    9) = (   0.0000000   0.6869627   0.0000000), wk =   0.0444444
        k(   10) = (   0.0000000   0.6869627   0.3665063), wk =   0.0888889
        k(   11) = (   0.0000000   0.6869627   0.7330126), wk =   0.0888889
        k(   12) = (   0.0000000   0.6869627  -1.0995189), wk =   0.0444444
        k(   13) = (   0.3333333   0.0000000   0.0000000), wk =   0.0444444
        k(   14) = (   0.3333333   0.0000000   0.3665063), wk =   0.0888889
[...]
     atom   17 type  3   force =    -0.01240996   -0.00237417    0.00036143
     atom   18 type  3   force =     0.01240996    0.00237417   -0.00036143
     atom   19 type  3   force =     0.01240996    0.00237417    0.00036143
     atom   20 type  3   force =    -0.01240996   -0.00237417   -0.00036143
     atom   21 type  3   force =    -0.00987716    0.00000000    0.01099064
     atom   22 type  3   force =     0.00987716    0.00000000   -0.01099064
     atom   23 type  3   force =     0.00987716    0.00000000    0.01099064
     atom   24 type  3   force =    -0.00987716    0.00000000   -0.01099064
     atom   25 type  3   force =    -0.01598012    0.00000000   -0.00298160
     atom   26 type  3   force =     0.01598012    0.00000000    0.00298160
     atom   27 type  3   force =     0.01598012    0.00000000   -0.00298160
     atom   28 type  3   force =    -0.01598012    0.00000000    0.00298160
     The non-local contrib.  to forces
     atom    1 type  4   force =    -0.00000000    0.00000000    0.00000000
     atom    2 type  4   force =     0.00000000    0.00000000    0.00000000
     atom    3 type  4   force =    -0.00000000   -0.00000000   -0.00000000
     atom    4 type  4   force =     0.00000000    0.00000000   -0.00000000
     atom    5 type  2   force =     0.10651618    0.00000000    0.08326943
     atom    6 type  2   force =    -0.10651618    0.00000000   -0.08326943
     atom    7 type  2   force =    -0.10651618    0.00000000    0.08326943
     atom    8 type  2   force =     0.10651618    0.00000000   -0.08326943
     atom    9 type  1   force =     0.04662553    0.00000000   -0.04524040
     atom   10 type  1   force =    -0.04662553    0.00000000    0.04524040
     atom   11 type  1   force =    -0.04662553    0.00000000   -0.04524040
     atom   12 type  1   force =     0.04662553    0.00000000    0.04524040
     atom   13 type  3   force =    -0.49240341    1.17506612    0.68166201
     atom   14 type  3   force =     0.49240341   -1.17506612   -0.68166201
     atom   15 type  3   force =     0.49240341   -1.17506612    0.68166201
     atom   16 type  3   force =    -0.49240341    1.17506612   -0.68166201
     atom   17 type  3   force =    -0.49240341   -1.17506612   -0.68166201
     atom   18 type  3   force =     0.49240341    1.17506612    0.68166201
     atom   19 type  3   force =     0.49240341    1.17506612   -0.68166201
     atom   20 type  3   force =    -0.49240341   -1.17506612    0.68166201
     atom   21 type  3   force =    -1.33812363    0.00000000   -0.84564021
     atom   22 type  3   force =     1.33812363    0.00000000    0.84564021
     atom   23 type  3   force =     1.33812363    0.00000000   -0.84564021
     atom   24 type  3   force =    -1.33812363    0.00000000    0.84564021
     atom   25 type  3   force =     0.36197971    0.00000000   -1.52970670
     atom   26 type  3   force =    -0.36197971    0.00000000    1.52970670
     atom   27 type  3   force =    -0.36197971    0.00000000   -1.52970670
     atom   28 type  3   force =     0.36197971    0.00000000    1.52970670
     The ionic contribution  to forces
     atom    1 type  4   force =     0.00000000    0.00000000   -0.00000000
     atom    2 type  4   force =    -0.00000000   -0.00000000    0.00000000
     atom    3 type  4   force =    -0.00000000    0.00000000    0.00000000
     atom    4 type  4   force =    -0.00000000   -0.00000000   -0.00000000
     atom    5 type  2   force =    -4.10276489   -0.00000000   -2.73600644
     atom    6 type  2   force =     4.10276489    0.00000000    2.73600644
     atom    7 type  2   force =     4.10276489    0.00000000   -2.73600644
     atom    8 type  2   force =    -4.10276489   -0.00000000    2.73600644
     atom    9 type  1   force =    -2.07932821    0.00000000    1.98442321
     atom   10 type  1   force =     2.07932821   -0.00000000   -1.98442321
     atom   11 type  1   force =     2.07932821   -0.00000000    1.98442321
     atom   12 type  1   force =    -2.07932821    0.00000000   -1.98442321
     atom   13 type  3   force =    -3.72646069   -3.38172177   -1.22124522
     atom   14 type  3   force =     3.72646069    3.38172177    1.22124522
     atom   15 type  3   force =     3.72646069    3.38172177   -1.22124522
     atom   16 type  3   force =    -3.72646069   -3.38172177    1.22124522
     atom   17 type  3   force =    -3.72646069    3.38172177    1.22124522
     atom   18 type  3   force =     3.72646069   -3.38172177   -1.22124522
     atom   19 type  3   force =     3.72646069   -3.38172177    1.22124522
     atom   20 type  3   force =    -3.72646069    3.38172177   -1.22124522
     atom   21 type  3   force =    -0.35611076   -0.00000000    5.36648636
     atom   22 type  3   force =     0.35611076    0.00000000   -5.36648636
     atom   23 type  3   force =     0.35611076    0.00000000    5.36648636
     atom   24 type  3   force =    -0.35611076   -0.00000000   -5.36648636
     atom   25 type  3   force =    -6.71114233    0.00000000    0.96782789
     atom   26 type  3   force =     6.71114233   -0.00000000   -0.96782789
     atom   27 type  3   force =     6.71114233   -0.00000000    0.96782789
     atom   28 type  3   force =    -6.71114233    0.00000000   -0.96782789
     The local contribution  to forces
     atom    1 type  4   force =    -0.00000000    0.00000000    0.00000000
     atom    2 type  4   force =     0.00000000    0.00000000    0.00000000
     atom    3 type  4   force =     0.00000000   -0.00000000    0.00000000
     atom    4 type  4   force =    -0.00000000   -0.00000000   -0.00000000
     atom    5 type  2   force =     3.98545086   -0.00000000    2.68367426
     atom    6 type  2   force =    -3.98545086    0.00000000   -2.68367426
     atom    7 type  2   force =    -3.98545086    0.00000000    2.68367426
     atom    8 type  2   force =     3.98545086   -0.00000000   -2.68367426
     atom    9 type  1   force =     2.03882401    0.00000000   -1.93863752
     atom   10 type  1   force =    -2.03882401   -0.00000000    1.93863752
     atom   11 type  1   force =    -2.03882401    0.00000000   -1.93863752
     atom   12 type  1   force =     2.03882401    0.00000000    1.93863752
     atom   13 type  3   force =     4.20285788    2.21922394    0.54532310
     atom   14 type  3   force =    -4.20285788   -2.21922394   -0.54532310
     atom   15 type  3   force =    -4.20285788   -2.21922394    0.54532310
     atom   16 type  3   force =     4.20285788    2.21922394   -0.54532310
     atom   17 type  3   force =     4.20285788   -2.21922394   -0.54532310
     atom   18 type  3   force =    -4.20285788    2.21922394    0.54532310
     atom   19 type  3   force =    -4.20285788    2.21922394   -0.54532310
     atom   20 type  3   force =     4.20285788   -2.21922394    0.54532310
     atom   21 type  3   force =     1.67370071   -0.00000000   -4.51805276
     atom   22 type  3   force =    -1.67370071    0.00000000    4.51805276
     atom   23 type  3   force =    -1.67370071    0.00000000   -4.51805276
     atom   24 type  3   force =     1.67370071   -0.00000000    4.51805276
     atom   25 type  3   force =     6.33801961    0.00000000    0.54586221
     atom   26 type  3   force =    -6.33801961   -0.00000000   -0.54586221
     atom   27 type  3   force =    -6.33801961   -0.00000000    0.54586221
     atom   28 type  3   force =     6.33801961    0.00000000   -0.54586221
     The core correction contribution to forces
     atom    1 type  4   force =     0.00000000    0.00000000    0.00000000
     atom    2 type  4   force =     0.00000000    0.00000000    0.00000000
     atom    3 type  4   force =     0.00000000    0.00000000    0.00000000
     atom    4 type  4   force =     0.00000000    0.00000000    0.00000000
     atom    5 type  2   force =    -0.01942560    0.00000000    0.03416173
     atom    6 type  2   force =     0.01942560    0.00000000   -0.03416173
     atom    7 type  2   force =     0.01942560   -0.00000000    0.03416173
     atom    8 type  2   force =    -0.01942560    0.00000000   -0.03416173
     atom    9 type  1   force =    -0.00408920    0.00000000    0.00080267
     atom   10 type  1   force =     0.00408920    0.00000000   -0.00080267
     atom   11 type  1   force =     0.00408920    0.00000000    0.00080267
     atom   12 type  1   force =    -0.00408920    0.00000000   -0.00080267
     atom   13 type  3   force =     0.00359834   -0.01019589   -0.00610458
     atom   14 type  3   force =    -0.00359834    0.01019589    0.00610458
     atom   15 type  3   force =    -0.00359834    0.01019589   -0.00610458
     atom   16 type  3   force =     0.00359834   -0.01019589    0.00610458
     atom   17 type  3   force =     0.00359834    0.01019589    0.00610458
     atom   18 type  3   force =    -0.00359834   -0.01019589   -0.00610458
     atom   19 type  3   force =    -0.00359834   -0.01019589    0.00610458
     atom   20 type  3   force =     0.00359834    0.01019589   -0.00610458
     atom   21 type  3   force =     0.01066041   -0.00000000    0.00819440
     atom   22 type  3   force =    -0.01066041    0.00000000   -0.00819440
     atom   23 type  3   force =    -0.01066041    0.00000000    0.00819440
     atom   24 type  3   force =     0.01066041   -0.00000000   -0.00819440
     atom   25 type  3   force =    -0.00483943   -0.00000000    0.01304644
     atom   26 type  3   force =     0.00483943   -0.00000000   -0.01304644
     atom   27 type  3   force =     0.00483943   -0.00000000    0.01304644
     atom   28 type  3   force =    -0.00483943    0.00000000   -0.01304644
     The Hubbard contrib.    to forces
     atom    1 type  4   force =     0.00000000    0.00000000    0.00000000
     atom    2 type  4   force =     0.00000000    0.00000000    0.00000000
     atom    3 type  4   force =     0.00000000    0.00000000    0.00000000
     atom    4 type  4   force =     0.00000000    0.00000000    0.00000000
     atom    5 type  2   force =     0.00000000    0.00000000    0.00000000
     atom    6 type  2   force =     0.00000000    0.00000000    0.00000000
     atom    7 type  2   force =     0.00000000    0.00000000    0.00000000
     atom    8 type  2   force =     0.00000000    0.00000000    0.00000000
     atom    9 type  1   force =     0.00000000    0.00000000    0.00000000
     atom   10 type  1   force =     0.00000000    0.00000000    0.00000000
     atom   11 type  1   force =     0.00000000    0.00000000    0.00000000
     atom   12 type  1   force =     0.00000000    0.00000000    0.00000000
     atom   13 type  3   force =     0.00000000    0.00000000    0.00000000
     atom   14 type  3   force =     0.00000000    0.00000000    0.00000000
     atom   15 type  3   force =     0.00000000    0.00000000    0.00000000
     atom   16 type  3   force =     0.00000000    0.00000000    0.00000000
     atom   17 type  3   force =     0.00000000    0.00000000    0.00000000
     atom   18 type  3   force =     0.00000000    0.00000000    0.00000000
     atom   19 type  3   force =     0.00000000    0.00000000    0.00000000
     atom   20 type  3   force =     0.00000000    0.00000000    0.00000000
     atom   21 type  3   force =     0.00000000    0.00000000    0.00000000
     atom   22 type  3   force =     0.00000000    0.00000000    0.00000000
     atom   23 type  3   force =     0.00000000    0.00000000    0.00000000
     atom   24 type  3   force =     0.00000000    0.00000000    0.00000000
     atom   25 type  3   force =     0.00000000    0.00000000    0.00000000
     atom   26 type  3   force =     0.00000000    0.00000000    0.00000000
     atom   27 type  3   force =     0.00000000    0.00000000    0.00000000
     atom   28 type  3   force =     0.00000000    0.00000000    0.00000000
     The SCF correction term to forces
     atom    1 type  4   force =    -0.00000000   -0.00000000    0.00000000
     atom    2 type  4   force =    -0.00000000   -0.00000000    0.00000000
     atom    3 type  4   force =     0.00000000   -0.00000000   -0.00000000
     atom    4 type  4   force =    -0.00000000    0.00000000   -0.00000000
     atom    5 type  2   force =    -0.00000114   -0.00000000    0.00000526
     atom    6 type  2   force =     0.00000114    0.00000000   -0.00000526
     atom    7 type  2   force =     0.00000114    0.00000000    0.00000526
     atom    8 type  2   force =    -0.00000114    0.00000000   -0.00000526
     atom    9 type  1   force =     0.00000188    0.00000000    0.00000425
     atom   10 type  1   force =    -0.00000188   -0.00000000   -0.00000425
     atom   11 type  1   force =    -0.00000188    0.00000000    0.00000425
     atom   12 type  1   force =     0.00000188   -0.00000000   -0.00000425
     atom   13 type  3   force =    -0.00000208    0.00000177    0.00000325
     atom   14 type  3   force =     0.00000208   -0.00000177   -0.00000325
     atom   15 type  3   force =     0.00000208   -0.00000177    0.00000325
     atom   16 type  3   force =    -0.00000208    0.00000177   -0.00000325
     atom   17 type  3   force =    -0.00000208   -0.00000177   -0.00000325
     atom   18 type  3   force =     0.00000208    0.00000177    0.00000325
     atom   19 type  3   force =     0.00000208    0.00000177   -0.00000325
     atom   20 type  3   force =    -0.00000208   -0.00000177    0.00000325
     atom   21 type  3   force =    -0.00000389   -0.00000000    0.00000285
     atom   22 type  3   force =     0.00000389    0.00000000   -0.00000285
     atom   23 type  3   force =     0.00000389    0.00000000    0.00000285
     atom   24 type  3   force =    -0.00000389   -0.00000000   -0.00000285
     atom   25 type  3   force =     0.00000231    0.00000000   -0.00001145
     atom   26 type  3   force =    -0.00000231    0.00000000    0.00001145
     atom   27 type  3   force =    -0.00000231   -0.00000000   -0.00001145
     atom   28 type  3   force =     0.00000231    0.00000000    0.00001145

     Total force =     0.154405     Total SCF correction =     0.000031

     Computing stress (Cartesian axis) and pressure

          total   stress  (Ry/bohr**3)                   (kbar)     P= -269.88
  -0.00183321   0.00000000   0.00000000       -269.67      0.00      0.00
   0.00000000  -0.00189092   0.00000000          0.00   -278.16      0.00
   0.00000000   0.00000000  -0.00177975          0.00      0.00   -261.81

     kinetic stress (kbar)  31306.01      0.00      0.00
                                0.00  31393.92      0.00
                                0.00      0.00  31104.51

     local   stress (kbar)  -1071.15      0.00     -0.00
                                0.00  -3422.24      0.00
                               -0.00      0.00  -1352.49

     nonloc. stress (kbar)  -5441.59      0.00      0.00
                                0.00  -5439.60      0.00
                                0.00      0.00  -5414.04

     hartree stress (kbar)  15292.82     -0.00     -0.00
                               -0.00  17059.27      0.00
                               -0.00      0.00  15469.56

     exc-cor stress (kbar)  -3848.79      0.00     -0.00
                                0.00  -3851.51     -0.00
                               -0.00     -0.00  -3838.94

     corecor stress (kbar)  -4039.29     -0.00     -0.00
                               -0.00  -4036.85      0.00
                               -0.00      0.00  -4068.96

     ewald   stress (kbar) -32467.67     -0.00      0.00
                               -0.00 -31981.15     -0.00
                                0.00     -0.00 -32161.44

     hubbard stress (kbar)      0.00      0.00      0.00
                                0.00      0.00      0.00
                                0.00      0.00      0.00

     london  stress (kbar)      0.00      0.00      0.00
                                0.00      0.00      0.00
                                0.00      0.00      0.00

     DFT-D3  stress (kbar)      0.00      0.00      0.00
                                0.00      0.00      0.00
                                0.00      0.00      0.00

     XDM     stress (kbar)      0.00      0.00      0.00
                                0.00      0.00      0.00
                                0.00      0.00      0.00

     dft-nl  stress (kbar)      0.00      0.00      0.00
                                0.00      0.00      0.00
                                0.00      0.00      0.00

     TS-vdW  stress (kbar)      0.00      0.00      0.00
                                0.00      0.00      0.00
                                0.00      0.00      0.00

     Writing output data file VLAB.save/

     General routines

     Parallel routines

     PAW routines

   This run was terminated on:   7:54:42  16Apr2020

   JOB DONE.