     Program PWSCF v.6.4.1 starts on 16Apr2020 at  7:32:16

     R & G space division:  proc/nbgrp/npool/nimage =      48
     Waiting for input...
     Reading input from standard input

     Current dimensions of program PWSCF are:
     Max number of different atomic species (ntypx) = 10
     Max number of k-points (npk) =  40000
     Max angular momentum in pseudopotentials (lmaxx) =  3
               file Fe.pbe-spn-kjpaw_psl.0.2.1.UPF: wavefunction(s)  3D renormalized
               file O.pbe-n-kjpaw_psl.0.1.UPF: wavefunction(s)  2P renormalized

     Message from routine setup:
     DEPRECATED: symmetry with ibrav=0, use correct ibrav instead

     bravais-lattice index     =            0
     lattice parameter (alat)  =      19.7533  a.u.
     unit-cell volume          =    2040.8545 (a.u.)^3
     number of atoms/cell      =           28
     number of atomic types    =            4
     number of electrons       =       192.00
     number of Kohn-Sham states=          115
     kinetic-energy cutoff     =      30.0000  Ry
     charge density cutoff     =     120.0000  Ry
     convergence threshold     =      1.0E-06
     mixing beta               =       0.5000
     number of iterations used =            8  plain     mixing
     Exchange-correlation      =  SLA  PW   PBX  PBC ( 1  4  3  4 0 0)
     nstep                     =          100

     celldm(1)=  19.753284  celldm(2)=   0.000000  celldm(3)=   0.000000
     celldm(4)=   0.000000  celldm(5)=   0.000000  celldm(6)=   0.000000

     crystal axes: (cart. coord. in units of alat)
               a(1) = (   1.000000   0.000000   0.000000 )
               a(2) = (   0.000000   0.582273   0.000000 )
               a(3) = (   0.000000   0.000000   0.454744 )

     reciprocal axes: (cart. coord. in units 2 pi/alat)
               b(1) = (  1.000000  0.000000  0.000000 )
               b(2) = (  0.000000  1.717407  0.000000 )
               b(3) = (  0.000000  0.000000  2.199038 )

     PseudoPot. # 1 for P  read from file:
     ./P.pbe-n-rrkjus_psl.1.0.0.UPF
     MD5 check sum: 8b930f418f0a4573dca56cd030ffe088
     Pseudo is Ultrasoft + core correction, Zval =  5.0
     Generated using "atomic" code by A. Dal Corso v.5.1
     Using radial grid of 1147 points,  6 beta functions with:
                l(1) =   0
                l(2) =   0
                l(3) =   1
                l(4) =   1
                l(5) =   2
                l(6) =   2
     Q(r) pseudized with 0 coefficients

     PseudoPot. # 2 for Fe read from file:
     ./Fe.pbe-spn-kjpaw_psl.0.2.1.UPF
     MD5 check sum: e86618425769142926afa95317d90200
     Pseudo is Projector augmented-wave + core cor, Zval = 16.0
     Generated using "atomic" code by A. Dal Corso v.5.0.99 svn rev. 10869
     Shape of augmentation charge: PSQ
     Using radial grid of 1191 points,  6 beta functions with:
                l(1) =   0
                l(2) =   0
                l(3) =   1
                l(4) =   1
                l(5) =   2
                l(6) =   2
     Q(r) pseudized with 0 coefficients

     PseudoPot. # 3 for O  read from file:
     ./O.pbe-n-kjpaw_psl.0.1.UPF
     MD5 check sum: 0234752ac141de4415c5fc33072bef88
     Pseudo is Projector augmented-wave + core cor, Zval =  6.0
     Generated using "atomic" code by A. Dal Corso v.5.0.99 svn rev. 10869
     Shape of augmentation charge: BESSEL
     Using radial grid of 1095 points,  4 beta functions with:
                l(1) =   0
                l(2) =   0
                l(3) =   1
                l(4) =   1
     Q(r) pseudized with 0 coefficients

     PseudoPot. # 4 for Li read from file:
     ./li_pbe_v1.4.uspp.F.UPF
     MD5 check sum: e912e257baa3777c20ea3d68f190483c
     Pseudo is Ultrasoft, Zval =  3.0
     Generated by new atomic code, or converted to UPF format
     Using radial grid of  751 points,  5 beta functions with:
                l(1) =   0
                l(2) =   0
                l(3) =   0
                l(4) =   1
                l(5) =   1
     Q(r) pseudized with 10 coefficients,  rinner =    1.150   1.150   1.150

     atomic species   valence    mass     pseudopotential
        P              5.00    30.97376     P ( 1.00)
        Fe            16.00    55.84500     Fe( 1.00)
        O              6.00    15.99940     O ( 1.00)
        Li             3.00     6.94100     Li( 1.00)

      8 Sym. Ops., with inversion, found ( 6 have fractional translation)

   Cartesian axes

     site n.     atom                  positions (alat units)
         1           Li  tau(   1) = (   0.0000000   0.0000000   0.0000000  )
         2           Li  tau(   2) = (   0.5000000   0.0000000   0.2273722  )
         3           Li  tau(   3) = (   0.5000000   0.2911366   0.2273722  )
         4           Li  tau(   4) = (   0.0000000   0.2911366   0.0000000  )
         5           Fe  tau(   5) = (   0.2185060   0.4367049   0.2164738  )
         6           Fe  tau(   6) = (   0.7814940   0.1455683   0.2382706  )
         7           Fe  tau(   7) = (   0.2814940   0.1455683   0.4438459  )
         8           Fe  tau(   8) = (   0.7185060   0.4367049   0.0108984  )
         9           P   tau(   9) = (   0.0946680   0.1455683   0.1904669  )
        10           P   tau(  10) = (   0.9053320   0.4367049   0.2642774  )
        11           P   tau(  11) = (   0.4053320   0.4367049   0.4178391  )
        12           P   tau(  12) = (   0.5946680   0.1455683   0.0369052  )
        13           O   tau(  13) = (   0.1656890   0.0274210   0.1301224  )
        14           O   tau(  14) = (   0.8343110   0.5548522   0.3246220  )
        15           O   tau(  15) = (   0.3343110   0.5548522   0.3574945  )
        16           O   tau(  16) = (   0.6656890   0.0274210   0.0972498  )
        17           O   tau(  17) = (   0.6656890   0.2637156   0.0972498  )
        18           O   tau(  18) = (   0.3343110   0.3185576   0.3574945  )
        19           O   tau(  19) = (   0.8343110   0.3185576   0.3246220  )
        20           O   tau(  20) = (   0.1656890   0.2637156   0.1301224  )
        21           O   tau(  21) = (   0.0427110   0.4367049   0.3213164  )
        22           O   tau(  22) = (   0.9572890   0.1455683   0.1334279  )
        23           O   tau(  23) = (   0.4572890   0.1455683   0.0939443  )
        24           O   tau(  24) = (   0.5427110   0.4367049   0.3608001  )
        25           O   tau(  25) = (   0.0965200   0.1455683   0.3375663  )
        26           O   tau(  26) = (   0.9034800   0.4367049   0.1171781  )
        27           O   tau(  27) = (   0.4034800   0.4367049   0.1101941  )
        28           O   tau(  28) = (   0.5965200   0.1455683   0.3445502  )

     number of k points=     1  gaussian smearing, width (Ry)=  0.0020
                       cart. coord. in units 2pi/alat
        k(    1) = (   0.0000000   0.0000000   0.0000000), wk =   2.0000000

     Check: negative core charge=   -0.003411

     Initial potential from superposition of free atoms

     starting charge  190.19461, renormalised to  192.00000
     Starting wfcs are  152 randomized atomic wfcs
     Checking if some PAW data can be deallocated...

     Self-consistent Calculation

     iteration #  1     ecut=    30.00 Ry     beta= 0.50
     Davidson diagonalization with overlap
     ethr =  1.00E-02,  avg # of iterations =  4.0

     total energy              =   -2096.33432064 Ry
     Harris-Foulkes estimate   =   -2100.24736707 Ry
     estimated scf accuracy    <       6.45578107 Ry

[...]

     negative rho (up, down):  5.537E-04 0.000E+00

[...]

     End of self-consistent calculation

          k = 0.0000 0.0000 0.0000 (  5669 PWs)   bands (ev):

   -80.4745 -80.4717 -80.4696 -80.4695 -45.5576 -45.5406 -45.5179 -45.5142
   -45.5044 -45.4949 -45.4845 -45.4833 -45.2487 -45.2463 -45.2460 -45.2361
   -37.5229 -37.5227 -37.5147 -37.5140 -15.4350 -15.2779 -15.1948 -15.0954
   -12.8300 -12.8203 -12.7904 -12.7444 -12.7294 -12.7201 -12.6962 -12.6604
   -12.5893 -12.5670 -12.5565 -12.5487  -2.7229  -2.2897  -2.2753  -2.1236
    -1.0671  -0.6847  -0.6486  -0.5795  -0.3000  -0.2246   0.0772   0.2036
     0.2486   0.3177   0.3823   0.4732   1.4924   1.8955   2.0009   2.0544
     2.1184   2.1760   2.1984   2.2047   2.3390   2.4928   2.7811   2.9566
     2.9750   3.0091   3.0300   3.0673   3.0897   3.1833   3.2390   3.3077
     3.3721   3.5338   3.5874   3.6608   3.7706   3.8557   3.9732   4.0226
     4.1364   4.3158   4.6798   4.8603   6.1935   6.2320   6.3173   6.3620
     6.3861   6.4424   6.4703   6.4826   6.5739   6.5752   6.5832   6.5857
     7.9708   7.9770   8.0056   8.2496   8.4311   8.4536   8.5710   8.5952
     9.5361  11.3908  11.9540  12.4154  13.1514  13.4286  13.5958  13.6943
    13.8718  13.9779  14.3286

     the Fermi energy is     6.9681 ev

!    total energy              =   -2099.04330102 Ry
     Harris-Foulkes estimate   =   -2099.04330190 Ry
     estimated scf accuracy    <       0.00000099 Ry

     The total energy is the sum of the following terms:

     one-electron contribution =    -958.03965301 Ry
     hartree contribution      =     568.16464717 Ry
     xc contribution           =    -292.19709670 Ry
     ewald contribution        =    -960.42563899 Ry
     one-center paw contrib.   =    -456.54555949 Ry
     smearing contrib. (-TS)   =      -0.00000000 Ry

     convergence has been achieved in  10 iterations

[...]

     Forces acting on atoms (cartesian axes, Ry/au):

     atom    1 type  4   force =     0.00000000    0.00000000    0.00000000
     atom    2 type  4   force =     0.00000000    0.00000000    0.00000000
     atom    3 type  4   force =     0.00000000    0.00000000    0.00000000
     atom    4 type  4   force =     0.00000000    0.00000000    0.00000000
     atom    5 type  2   force =     0.01463946    0.00000000    0.05029428
     atom    6 type  2   force =    -0.01463946    0.00000000   -0.05029428
     atom    7 type  2   force =    -0.01463946   -0.00000000    0.05029428
     atom    8 type  2   force =     0.01463946    0.00000000   -0.05029428
     atom    9 type  1   force =     0.01338214    0.00000000    0.02228501
     atom   10 type  1   force =    -0.01338214    0.00000000   -0.02228501
     atom   11 type  1   force =    -0.01338214   -0.00000000    0.02228501
     atom   12 type  1   force =     0.01338214    0.00000000   -0.02228501
     atom   13 type  3   force =     0.01899740   -0.03119466   -0.03528983
     atom   14 type  3   force =    -0.01899740    0.03119466    0.03528983
     atom   15 type  3   force =    -0.01899740    0.03119466   -0.03528983
     atom   16 type  3   force =     0.01899740   -0.03119466    0.03528983
     atom   17 type  3   force =     0.01899740    0.03119466    0.03528983
     atom   18 type  3   force =    -0.01899740   -0.03119466   -0.03528983
     atom   19 type  3   force =    -0.01899740   -0.03119466    0.03528983
     atom   20 type  3   force =     0.01899740    0.03119466   -0.03528983
     atom   21 type  3   force =     0.04874838    0.00000000   -0.00303090
     atom   22 type  3   force =    -0.04874838    0.00000000    0.00303090
[...]

[...]

          total   stress  (Ry/bohr**3)                   (kbar)     P=  -18.11
  -0.00009821   0.00000000   0.00000000        -14.45      0.00      0.00
   0.00000000  -0.00016116   0.00000000          0.00    -23.71      0.00
   0.00000000   0.00000000  -0.00010992          0.00      0.00    -16.17

[...]

     CASE: enthalpy_new > enthalpy_old

[...]

     Threshold (ethr) on eigenvalues was too large:
     Diagonalizing with lowered threshold

     Davidson diagonalization with overlap
     ethr =  2.33E-08,  avg # of iterations =  3.0

[...]

     Total force =     0.002119     Total SCF correction =     0.000292
     SCF correction compared to forces is large: reduce conv_thr to get better values

[...]

     number of scf cycles    =  17
     number of bfgs steps    =  15

     enthalpy old            =   -2099.7050296336 Ry
     enthalpy new            =   -2099.7050428266 Ry

     CASE: enthalpy_new < enthalpy_old

     new trust radius        =       0.0016455488 bohr
     new conv_thr            =       0.0000001000 Ry

     new unit-cell volume =   1688.98050 a.u.^3 (   250.28108 Ang^3 )
     density =      4.18669 g/cm^3

[...]

ATOMIC_POSITIONS (angstrom)
Li       0.000000000   0.000000000   0.000000000
Li       4.939669032  -0.000000000   2.214391319
Li       4.939669032   2.860130301   2.214391319
Li       0.000000000   2.860130301  -0.000000000
Fe       2.262698342   4.290195452   2.160086694
Fe       7.616639722   1.430065151   2.268695944
Fe       2.676970690   1.430065151   4.374478013
Fe       7.202367373   4.290195452   0.054304625
P        0.919869222   1.430065151   1.832236990
P        8.959468842   4.290195452   2.596545648
P        4.019799810   4.290195452   4.046628309
P        5.859538254   1.430065151   0.382154329
O        1.620763128   0.175208029   1.166253388
O        8.258574935   5.545052573   3.262529250
O        3.318905904   5.545052573   3.380644707
O        6.560432160   0.175208029   1.048137931
O        6.560432160   2.684922272   1.048137931
O        3.318905904   3.035338331   3.380644707
O        8.258574935   3.035338331   3.262529250
O        1.620763128   2.684922272   1.166253388
O        0.518692947   4.290195452   3.165258532
O        9.360645117   1.430065151   1.263524106
O        4.420976085   1.430065151   0.950867213
O        5.458361979   4.290195452   3.477915425
O        0.945772013   1.430065151   3.344695860
O        8.933566050   4.290195452   1.084086778
O        3.993897019   4.290195452   1.130304541
O        5.885441045   1.430065151   3.298478097

     Writing output data file VLAB.save/
     Message from routine punch:
     wavefunctions written to file
     NEW-OLD atomic charge density approx. for the potential

[...]

     negative rho (up, down):  2.164E-05 0.000E+00
     extrapolated charge  191.97251, renormalised to  192.00000

[...]

     Threshold (ethr) on eigenvalues was too large:
     Diagonalizing with lowered threshold

     Davidson diagonalization with overlap
     ethr =  5.25E-08,  avg # of iterations =  2.0

[...]

     bfgs converged in  18 scf cycles and  16 bfgs steps
     (criteria: energy <  1.0E-04 Ry, force <  1.0E-03Ry/Bohr, cell <  5.0E-01kbar)

     End of BFGS Geometry Optimization

     Final enthalpy =   -2099.7050508364 Ry
Begin final coordinates
     new unit-cell volume =   1688.98050 a.u.^3 (   250.28108 Ang^3 )
     density =      4.18669 g/cm^3

CELL_PARAMETERS (angstrom)
   9.879338064   0.000000000   0.000000000
   0.000000000   5.720260603   0.000000000
   0.000000000   0.000000000   4.428782638

ATOMIC_POSITIONS (angstrom)
Li       0.000000000   0.000000000   0.000000000
Li       4.939669032  -0.000000000   2.214391319
Li       4.939669032   2.860130301   2.214391319
Li       0.000000000   2.860130301  -0.000000000
Fe       2.262698342   4.290195452   2.160086694
Fe       7.616639722   1.430065151   2.268695944
Fe       2.676970690   1.430065151   4.374478013
Fe       7.202367373   4.290195452   0.054304625
P        0.919869222   1.430065151   1.832236990
P        8.959468842   4.290195452   2.596545648
P        4.019799810   4.290195452   4.046628309
P        5.859538254   1.430065151   0.382154329
O        1.620763128   0.175208029   1.166253388
O        8.258574935   5.545052573   3.262529250
O        3.318905904   5.545052573   3.380644707
O        6.560432160   0.175208029   1.048137931
O        6.560432160   2.684922272   1.048137931
O        3.318905904   3.035338331   3.380644707
O        8.258574935   3.035338331   3.262529250
O        1.620763128   2.684922272   1.166253388
O        0.518692947   4.290195452   3.165258532
O        9.360645117   1.430065151   1.263524106
O        4.420976085   1.430065151   0.950867213
O        5.458361979   4.290195452   3.477915425
O        0.945772013   1.430065151   3.344695860
O        8.933566050   4.290195452   1.084086778
O        3.993897019   4.290195452   1.130304541
O        5.885441045   1.430065151   3.298478097
End final coordinates

     Writing output data file VLAB.save/
     Message from routine punch:
     wavefunctions written to file

     A final scf calculation at the relaxed structure.
     The G-vectors are recalculated for the final unit cell
     Results may differ from those at the preceding step.

     bravais-lattice index     =            0
     lattice parameter (alat)  =      19.7533  a.u.
     unit-cell volume          =    1688.9805 (a.u.)^3
     number of atoms/cell      =           28
     number of atomic types    =            4
     number of electrons       =       192.00
     number of Kohn-Sham states=          115
     kinetic-energy cutoff     =      30.0000  Ry
     charge density cutoff     =     120.0000  Ry
     convergence threshold     =      1.0E-07
     mixing beta               =       0.5000
     number of iterations used =            8  plain     mixing
     Exchange-correlation      =  SLA  PW   PBX  PBC ( 1  4  3  4 0 0)

     celldm(1)=  19.753284  celldm(2)=   0.000000  celldm(3)=   0.000000
     celldm(4)=   0.000000  celldm(5)=   0.000000  celldm(6)=   0.000000

     crystal axes: (cart. coord. in units of alat)
               a(1) = (   0.945121   0.000000   0.000000 )
               a(2) = (   0.000000   0.547237   0.000000 )
               a(3) = (   0.000000   0.000000   0.423686 )

     reciprocal axes: (cart. coord. in units 2 pi/alat)
               b(1) = (  1.058066  0.000000  0.000000 )
               b(2) = (  0.000000  1.827362  0.000000 )
               b(3) = (  0.000000  0.000000  2.360239 )

     PseudoPot. # 1 for P  read from file:
     ./P.pbe-n-rrkjus_psl.1.0.0.UPF
     MD5 check sum: 8b930f418f0a4573dca56cd030ffe088
     Pseudo is Ultrasoft + core correction, Zval =  5.0
     Generated using "atomic" code by A. Dal Corso v.5.1
     Using radial grid of 1147 points,  6 beta functions with:
                l(1) =   0
                l(2) =   0
                l(3) =   1
                l(4) =   1
                l(5) =   2
                l(6) =   2
     Q(r) pseudized with 0 coefficients

     PseudoPot. # 2 for Fe read from file:
     ./Fe.pbe-spn-kjpaw_psl.0.2.1.UPF
     MD5 check sum: e86618425769142926afa95317d90200
     Pseudo is Projector augmented-wave + core cor, Zval = 16.0
     Generated using "atomic" code by A. Dal Corso v.5.0.99 svn rev. 10869
     Shape of augmentation charge: PSQ
     Using radial grid of 1191 points,  6 beta functions with:
                l(1) =   0
                l(2) =   0
                l(3) =   1
                l(4) =   1
                l(5) =   2
                l(6) =   2
     Q(r) pseudized with 0 coefficients

     PseudoPot. # 3 for O  read from file:
     ./O.pbe-n-kjpaw_psl.0.1.UPF
     MD5 check sum: 0234752ac141de4415c5fc33072bef88
     Pseudo is Projector augmented-wave + core cor, Zval =  6.0
     Generated using "atomic" code by A. Dal Corso v.5.0.99 svn rev. 10869
     Shape of augmentation charge: BESSEL
     Using radial grid of 1095 points,  4 beta functions with:
                l(1) =   0
                l(2) =   0
                l(3) =   1
                l(4) =   1
     Q(r) pseudized with 0 coefficients

     PseudoPot. # 4 for Li read from file:
     ./li_pbe_v1.4.uspp.F.UPF
     MD5 check sum: e912e257baa3777c20ea3d68f190483c
     Pseudo is Ultrasoft, Zval =  3.0
     Generated by new atomic code, or converted to UPF format
     Using radial grid of  751 points,  5 beta functions with:
                l(1) =   0
                l(2) =   0
                l(3) =   0
                l(4) =   1
                l(5) =   1
     Q(r) pseudized with 10 coefficients,  rinner =    1.150   1.150   1.150

     atomic species   valence    mass     pseudopotential
        P              5.00    30.97376     P ( 1.00)
        Fe            16.00    55.84500     Fe( 1.00)
        O              6.00    15.99940     O ( 1.00)
        Li             3.00     6.94100     Li( 1.00)

      8 Sym. Ops., with inversion, found ( 6 have fractional translation)

   Cartesian axes

     site n.     atom                  positions (alat units)
         1           Li  tau(   1) = (   0.0000000   0.0000000   0.0000000  )
         2           Li  tau(   2) = (   0.4725605  -0.0000000   0.2118429  )
         3           Li  tau(   3) = (   0.4725605   0.2736185   0.2118429  )
         4           Li  tau(   4) = (   0.0000000   0.2736185  -0.0000000  )
         5           Fe  tau(   5) = (   0.2164643   0.4104277   0.2066478  )
         6           Fe  tau(   6) = (   0.7286567   0.1368092   0.2170380  )
         7           Fe  tau(   7) = (   0.2560962   0.1368092   0.4184907  )
         8           Fe  tau(   8) = (   0.6890248   0.4104277   0.0051951  )
         9           P   tau(   9) = (   0.0880006   0.1368092   0.1752836  )
        10           P   tau(  10) = (   0.8571204   0.4104277   0.2484022  )
        11           P   tau(  11) = (   0.3845599   0.4104277   0.3871265  )
        12           P   tau(  12) = (   0.5605611   0.1368092   0.0365593  )
        13           O   tau(  13) = (   0.1550526   0.0167615   0.1115713  )
        14           O   tau(  14) = (   0.7900684   0.5304754   0.3121145  )
        15           O   tau(  15) = (   0.3175079   0.5304754   0.3234142  )
        16           O   tau(  16) = (   0.6276131   0.0167615   0.1002716  )
        17           O   tau(  17) = (   0.6276131   0.2568569   0.1002716  )
        18           O   tau(  18) = (   0.3175079   0.2903800   0.3234142  )
        19           O   tau(  19) = (   0.7900684   0.2903800   0.3121145  )
        20           O   tau(  20) = (   0.1550526   0.2568569   0.1115713  )
        21           O   tau(  21) = (   0.0496215   0.4104277   0.3028090  )
        22           O   tau(  22) = (   0.8954995   0.1368092   0.1208768  )
        23           O   tau(  23) = (   0.4229390   0.1368092   0.0909661  )
        24           O   tau(  24) = (   0.5221820   0.4104277   0.3327197  )
        25           O   tau(  25) = (   0.0904786   0.1368092   0.3199751  )
        26           O   tau(  26) = (   0.8546424   0.4104277   0.1037107  )
        27           O   tau(  27) = (   0.3820819   0.4104277   0.1081322  )
        28           O   tau(  28) = (   0.5630391   0.1368092   0.3155536  )

     number of k points=     1  gaussian smearing, width (Ry)=  0.0020
                       cart. coord. in units 2pi/alat
        k(    1) = (   0.0000000   0.0000000   0.0000000), wk =   2.0000000

     Check: negative core charge=   -0.003809

     Initial potential from superposition of free atoms

     starting charge  190.19461, renormalised to  192.00000
     Starting wfcs are  152 randomized atomic wfcs
     Checking if some PAW data can be deallocated...

     Self-consistent Calculation

[...]

     total energy              =   -2098.95237182 Ry
     Harris-Foulkes estimate   =   -2098.95237197 Ry
     estimated scf accuracy    <       0.00000052 Ry

     iteration # 11     ecut=    30.00 Ry     beta= 0.50
     Davidson diagonalization with overlap
     ethr =  2.71E-10,  avg # of iterations =  2.0

[...]

     End of self-consistent calculation

          k = 0.0000 0.0000 0.0000 (  4701 PWs)   bands (ev):

   -77.3920 -77.3883 -77.3869 -77.3843 -42.4868 -42.4833 -42.4650 -42.4638
   -42.4259 -42.4085 -42.3887 -42.3749 -42.2547 -42.2477 -42.2133 -42.2108
   -34.6233 -34.6233 -34.6031 -34.6020 -13.6013 -13.3113 -13.2162 -13.0214
   -10.8868 -10.8616 -10.7440 -10.7265 -10.7154 -10.7002 -10.6731 -10.5402
   -10.5172 -10.4805 -10.3138 -10.2886  -0.7528  -0.3791  -0.1421  -0.1159
     0.5321   1.0224   1.0529   1.0959   1.5085   1.6515   2.1237   2.2362
     2.3705   2.4044   2.6604   2.6633   3.3575   3.9182   3.9275   4.0563
     4.0933   4.1498   4.2221   4.2785   4.4495   4.5400   4.7173   4.7447
     4.8893   4.8997   5.0846   5.1660   5.2019   5.3894   5.4136   5.5201
     5.5606   5.7188   5.8581   6.0376   6.0817   6.1302   6.1376   6.2129
     6.3871   6.4019   6.8544   7.1150   9.1907   9.2381   9.2608   9.3041
     9.3573   9.5194   9.5314   9.5467   9.5969   9.6032   9.7968   9.8008
    11.4616  11.4906  11.5287  11.8061  12.0989  12.1419  12.4151  12.4358
    13.0892  14.7512  15.3387  16.1873  16.1887  16.4320  16.4524  16.5473
    16.7248  16.7783  17.0319

     the Fermi energy is    11.1780 ev

!    total energy              =   -2098.95237184 Ry
     Harris-Foulkes estimate   =   -2098.95237187 Ry
     estimated scf accuracy    <       0.00000006 Ry

     The total energy is the sum of the following terms:

     one-electron contribution =    -848.94135556 Ry
     hartree contribution      =     531.42049114 Ry
     xc contribution           =    -293.89915638 Ry
     ewald contribution        =   -1031.01634974 Ry
     one-center paw contrib.   =    -456.51600129 Ry
     smearing contrib. (-TS)   =      -0.00000000 Ry

     convergence has been achieved in  11 iterations

     negative rho (up, down):  5.530E-05 0.000E+00

     Forces acting on atoms (cartesian axes, Ry/au):

     atom    1 type  4   force =     0.00000000   -0.00000000    0.00000000
     atom    2 type  4   force =     0.00000000    0.00000000    0.00000000
     atom    3 type  4   force =     0.00000000    0.00000000    0.00000000
     atom    4 type  4   force =     0.00000000   -0.00000000    0.00000000
     atom    5 type  2   force =    -0.04027353    0.00000000   -0.03288253
     atom    6 type  2   force =     0.04027353    0.00000000    0.03288253
     atom    7 type  2   force =     0.04027353   -0.00000000   -0.03288253
     atom    8 type  2   force =    -0.04027353   -0.00000000    0.03288253
     atom    9 type  1   force =    -0.00144189   -0.00000000   -0.00058344
     atom   10 type  1   force =     0.00144189   -0.00000000    0.00058344
     atom   11 type  1   force =     0.00144189    0.00000000   -0.00058344
     atom   12 type  1   force =    -0.00144189    0.00000000    0.00058344
     atom   13 type  3   force =    -0.00796843    0.00194869    0.00202539
     atom   14 type  3   force =     0.00796843   -0.00194869   -0.00202539
     atom   15 type  3   force =     0.00796843   -0.00194869    0.00202539
     atom   16 type  3   force =    -0.00796843    0.00194869   -0.00202539
     atom   17 type  3   force =    -0.00796843   -0.00194869   -0.00202539
     atom   18 type  3   force =     0.00796843    0.00194869    0.00202539
     atom   19 type  3   force =     0.00796843    0.00194869   -0.00202539
     atom   20 type  3   force =    -0.00796843   -0.00194869    0.00202539
     atom   21 type  3   force =    -0.00894855    0.00000000    0.01471039
     atom   22 type  3   force =     0.00894855    0.00000000   -0.01471039
     atom   23 type  3   force =     0.00894855   -0.00000000    0.01471039
     atom   24 type  3   force =    -0.00894855   -0.00000000   -0.01471039
     atom   25 type  3   force =    -0.01677653    0.00000000    0.00158374
     atom   26 type  3   force =     0.01677653   -0.00000000   -0.00158374
     atom   27 type  3   force =     0.01677653   -0.00000000    0.00158374
     atom   28 type  3   force =    -0.01677653    0.00000000   -0.00158374

     Total force =     0.117113     Total SCF correction =     0.000789

     Computing stress (Cartesian axis) and pressure

     negative rho (up, down):  5.530E-05 0.000E+00
          total   stress  (Ry/bohr**3)                   (kbar)     P= -293.79
  -0.00193053   0.00000000   0.00000000       -283.99      0.00      0.00
   0.00000000  -0.00211525   0.00000000          0.00   -311.16      0.00
   0.00000000   0.00000000  -0.00194576          0.00      0.00   -286.23

     Writing output data file VLAB.save/

     General routines

     Parallel routines

   This run was terminated on:   7:33:10  16Apr2020

   JOB DONE.